# LAMMPS data file 

2400 atoms
1600 bonds
800 angles

2 atom types
1 bond types
1 angle types

0 35.0 xlo xhi
0 35.0 ylo yhi
0 35.0 zlo zhi

Atoms

1 1 1 -1.054 22.085 21.560000000000002 20.229999999999997 
2 1 2 0.527 22.670882276618297 22.316950327263662 20.229999999999997 
3 1 2 0.527 22.670882276618297 20.80304967273634 20.229999999999997 
4 2 1 -1.054 33.705 16.275000000000002 6.615 
5 2 2 0.527 34.2908822766183 17.03195032726366 6.615 
6 2 2 0.527 34.2908822766183 15.51804967273634 6.615 
7 3 1 -1.054 28.84 20.58 24.045 
8 3 2 0.527 29.425882276618296 21.336950327263658 24.045 
9 3 2 0.527 29.425882276618296 19.82304967273634 24.045 
10 4 1 -1.054 13.860000000000001 2.1 13.02 
11 4 2 0.527 14.445882276618295 2.856950327263661 13.02 
12 4 2 0.527 14.445882276618295 1.3430496727363388 13.02 
13 5 1 -1.054 30.45 0.45499999999999996 14.28 
14 5 2 0.527 31.035882276618295 1.2119503272636611 14.28 
15 5 2 0.527 31.035882276618295 -0.30195032726366117 14.28 
16 6 1 -1.054 22.82 6.37 34.615 
17 6 2 0.527 23.405882276618296 7.126950327263661 34.615 
18 6 2 0.527 23.405882276618296 5.613049672736339 34.615 
19 7 1 -1.054 32.795 19.775 16.904999999999998 
20 7 2 0.527 33.380882276618294 20.531950327263658 16.904999999999998 
21 7 2 0.527 33.380882276618294 19.018049672736336 16.904999999999998 
22 8 1 -1.054 12.494999999999997 28.070000000000004 34.3 
23 8 2 0.527 13.080882276618294 28.826950327263667 34.3 
24 8 2 0.527 13.080882276618294 27.31304967273634 34.3 
25 9 1 -1.054 17.115000000000002 1.6800000000000002 8.855 
26 9 2 0.527 17.700882276618294 2.436950327263661 8.855 
27 9 2 0.527 17.700882276618294 0.923049672736339 8.855 
28 10 1 -1.054 27.160000000000004 10.43 24.394999999999996 
29 10 2 0.527 27.7458822766183 11.186950327263661 24.394999999999996 
30 10 2 0.527 27.7458822766183 9.673049672736338 24.394999999999996 
31 11 1 -1.054 30.939999999999998 28.699999999999996 18.130000000000003 
32 11 2 0.527 31.525882276618297 29.45695032726366 18.130000000000003 
33 11 2 0.527 31.525882276618297 27.943049672736336 18.130000000000003 
34 12 1 -1.054 16.135 17.465 23.03 
35 12 2 0.527 16.720882276618298 18.22195032726366 23.03 
36 12 2 0.527 16.720882276618298 16.708049672736337 23.03 
37 13 1 -1.054 29.224999999999998 5.5649999999999995 26.145 
38 13 2 0.527 29.810882276618294 6.321950327263661 26.145 
39 13 2 0.527 29.810882276618294 4.808049672736338 26.145 
40 14 1 -1.054 24.57 29.575 10.57 
41 14 2 0.527 25.155882276618296 30.331950327263662 10.57 
42 14 2 0.527 25.155882276618296 28.81804967273634 10.57 
43 15 1 -1.054 11.515 31.36 12.635000000000002 
44 15 2 0.527 12.100882276618295 32.116950327263666 12.635000000000002 
45 15 2 0.527 12.100882276618295 30.60304967273634 12.635000000000002 
46 16 1 -1.054 22.189999999999998 8.4 9.24 
47 16 2 0.527 22.775882276618297 9.156950327263662 9.24 
48 16 2 0.527 22.775882276618297 7.643049672736338 9.24 
49 17 1 -1.054 24.884999999999998 34.055 7.5600000000000005 
50 17 2 0.527 25.470882276618294 34.81195032726366 7.5600000000000005 
51 17 2 0.527 25.470882276618294 33.29804967273634 7.5600000000000005 
52 18 1 -1.054 10.465 15.155000000000001 17.955000000000002 
53 18 2 0.527 11.050882276618294 15.911950327263662 17.955000000000002 
54 18 2 0.527 11.050882276618294 14.39804967273634 17.955000000000002 
55 19 1 -1.054 20.229999999999997 27.37 34.545 
56 19 2 0.527 20.815882276618293 28.126950327263664 34.545 
57 19 2 0.527 20.815882276618293 26.613049672736338 34.545 
58 20 1 -1.054 19.81 18.69 9.205000000000002 
59 20 2 0.527 20.395882276618295 19.446950327263664 9.205000000000002 
60 20 2 0.527 20.395882276618295 17.93304967273634 9.205000000000002 
61 21 1 -1.054 8.925 14.524999999999999 31.325000000000003 
62 21 2 0.527 9.510882276618295 15.28195032726366 31.325000000000003 
63 21 2 0.527 9.510882276618295 13.768049672736337 31.325000000000003 
64 22 1 -1.054 8.365 20.16 32.795 
65 22 2 0.527 8.950882276618294 20.916950327263663 32.795 
66 22 2 0.527 8.950882276618294 19.403049672736337 32.795 
67 23 1 -1.054 33.074999999999996 26.284999999999997 25.339999999999996 
68 23 2 0.527 33.660882276618295 27.04195032726366 25.339999999999996 
69 23 2 0.527 33.660882276618295 25.528049672736337 25.339999999999996 
70 24 1 -1.054 16.135 1.085 23.625000000000004 
71 24 2 0.527 16.720882276618298 1.8419503272636613 23.625000000000004 
72 24 2 0.527 16.720882276618298 0.32804967273633884 23.625000000000004 
73 25 1 -1.054 5.985 15.469999999999999 0.8400000000000001 
74 25 2 0.527 6.5708822766182955 16.226950327263662 0.8400000000000001 
75 25 2 0.527 6.5708822766182955 14.713049672736338 0.8400000000000001 
76 26 1 -1.054 26.11 32.83 0.17500000000000002 
77 26 2 0.527 26.695882276618295 33.58695032726366 0.17500000000000002 
78 26 2 0.527 26.695882276618295 32.07304967273634 0.17500000000000002 
79 27 1 -1.054 8.05 4.27 20.44 
80 27 2 0.527 8.635882276618295 5.026950327263661 20.44 
81 27 2 0.527 8.635882276618295 3.5130496727363387 20.44 
82 28 1 -1.054 21.490000000000002 19.11 12.774999999999999 
83 28 2 0.527 22.075882276618298 19.866950327263663 12.774999999999999 
84 28 2 0.527 22.075882276618298 18.35304967273634 12.774999999999999 
85 29 1 -1.054 1.1900000000000002 31.185000000000002 15.295000000000002 
86 29 2 0.527 1.775882276618295 31.941950327263662 15.295000000000002 
87 29 2 0.527 1.775882276618295 30.42804967273634 15.295000000000002 
88 30 1 -1.054 2.9750000000000005 27.965 20.614999999999995 
89 30 2 0.527 3.5608822766182953 28.721950327263663 20.614999999999995 
90 30 2 0.527 3.5608822766182953 27.208049672736337 20.614999999999995 
91 31 1 -1.054 26.74 11.865000000000002 29.154999999999998 
92 31 2 0.527 27.325882276618294 12.621950327263662 29.154999999999998 
93 31 2 0.527 27.325882276618294 11.108049672736339 29.154999999999998 
94 32 1 -1.054 33.53 15.75 15.469999999999999 
95 32 2 0.527 34.115882276618294 16.50695032726366 15.469999999999999 
96 32 2 0.527 34.115882276618294 14.993049672736339 15.469999999999999 
97 33 1 -1.054 21.385 34.895 19.425 
98 33 2 0.527 21.970882276618298 35.65195032726366 19.425 
99 33 2 0.527 21.970882276618298 34.13804967273634 19.425 
100 34 1 -1.054 29.96 8.925 9.205000000000002 
101 34 2 0.527 30.545882276618297 9.681950327263662 9.205000000000002 
102 34 2 0.527 30.545882276618297 8.16804967273634 9.205000000000002 
103 35 1 -1.054 21.7 23.345000000000002 0.7350000000000001 
104 35 2 0.527 22.285882276618295 24.101950327263665 0.7350000000000001 
105 35 2 0.527 22.285882276618295 22.58804967273634 0.7350000000000001 
106 36 1 -1.054 34.3 2.0300000000000002 10.709999999999999 
107 36 2 0.527 34.8858822766183 2.7869503272636615 10.709999999999999 
108 36 2 0.527 34.8858822766183 1.273049672736339 10.709999999999999 
109 37 1 -1.054 23.800000000000004 6.825 2.9400000000000004 
110 37 2 0.527 24.3858822766183 7.5819503272636615 2.9400000000000004 
111 37 2 0.527 24.3858822766183 6.068049672736339 2.9400000000000004 
112 38 1 -1.054 18.55 10.99 26.6 
113 38 2 0.527 19.135882276618293 11.746950327263662 26.6 
114 38 2 0.527 19.135882276618293 10.233049672736339 26.6 
115 39 1 -1.054 31.5 11.340000000000002 31.815 
116 39 2 0.527 32.08588227661829 12.096950327263663 31.815 
117 39 2 0.527 32.08588227661829 10.58304967273634 31.815 
118 40 1 -1.054 33.915 34.37 25.375 
119 40 2 0.527 34.50088227661829 35.12695032726366 25.375 
120 40 2 0.527 34.50088227661829 33.61304967273634 25.375 
121 41 1 -1.054 14.489999999999998 25.724999999999998 18.235 
122 41 2 0.527 15.075882276618293 26.48195032726366 18.235 
123 41 2 0.527 15.075882276618293 24.968049672736335 18.235 
124 42 1 -1.054 26.39 6.055 15.855 
125 42 2 0.527 26.9758822766183 6.811950327263661 15.855 
126 42 2 0.527 26.9758822766183 5.298049672736338 15.855 
127 43 1 -1.054 8.190000000000001 0.805 29.855 
128 43 2 0.527 8.775882276618296 1.5619503272636612 29.855 
129 43 2 0.527 8.775882276618296 0.048049672736338866 29.855 
130 44 1 -1.054 27.895000000000003 12.53 5.25 
131 44 2 0.527 28.4808822766183 13.28695032726366 5.25 
132 44 2 0.527 28.4808822766183 11.773049672736338 5.25 
133 45 1 -1.054 33.67 29.994999999999997 24.57 
134 45 2 0.527 34.255882276618294 30.75195032726366 24.57 
135 45 2 0.527 34.255882276618294 29.238049672736338 24.57 
136 46 1 -1.054 25.165 15.925 16.17 
137 46 2 0.527 25.750882276618295 16.68195032726366 16.17 
138 46 2 0.527 25.750882276618295 15.16804967273634 16.17 
139 47 1 -1.054 1.3650000000000002 31.115 9.24 
140 47 2 0.527 1.9508822766182952 31.87195032726366 9.24 
141 47 2 0.527 1.9508822766182952 30.35804967273634 9.24 
142 48 1 -1.054 33.25 4.97 34.055 
143 48 2 0.527 33.83588227661829 5.72695032726366 34.055 
144 48 2 0.527 33.83588227661829 4.2130496727363385 34.055 
145 49 1 -1.054 18.165 26.564999999999998 15.82 
146 49 2 0.527 18.750882276618295 27.32195032726366 15.82 
147 49 2 0.527 18.750882276618295 25.808049672736338 15.82 
148 50 1 -1.054 6.965 13.93 14.245 
149 50 2 0.527 7.550882276618295 14.686950327263661 14.245 
150 50 2 0.527 7.550882276618295 13.173049672736338 14.245 
151 51 1 -1.054 25.305 33.32 15.96 
152 51 2 0.527 25.890882276618296 34.07695032726366 15.96 
153 51 2 0.527 25.890882276618296 32.56304967273634 15.96 
154 52 1 -1.054 14.84 22.61 5.285 
155 52 2 0.527 15.425882276618294 23.366950327263663 5.285 
156 52 2 0.527 15.425882276618294 21.85304967273634 5.285 
157 53 1 -1.054 3.4650000000000003 11.025 27.335 
158 53 2 0.527 4.050882276618295 11.781950327263662 27.335 
159 53 2 0.527 4.050882276618295 10.268049672736339 27.335 
160 54 1 -1.054 24.64 18.795 21.875 
161 54 2 0.527 25.225882276618297 19.55195032726366 21.875 
162 54 2 0.527 25.225882276618297 18.038049672736342 21.875 
163 55 1 -1.054 34.754999999999995 26.564999999999998 2.205 
164 55 2 0.527 35.340882276618295 27.32195032726366 2.205 
165 55 2 0.527 35.340882276618295 25.808049672736338 2.205 
166 56 1 -1.054 10.254999999999999 32.305 15.89 
167 56 2 0.527 10.840882276618293 33.06195032726366 15.89 
168 56 2 0.527 10.840882276618293 31.54804967273634 15.89 
169 57 1 -1.054 7.035 14.42 27.545 
170 57 2 0.527 7.620882276618294 15.176950327263661 27.545 
171 57 2 0.527 7.620882276618294 13.663049672736339 27.545 
172 58 1 -1.054 16.8 33.32 13.3 
173 58 2 0.527 17.385882276618293 34.07695032726366 13.3 
174 58 2 0.527 17.385882276618293 32.56304967273634 13.3 
175 59 1 -1.054 31.990000000000002 2.66 27.825000000000003 
176 59 2 0.527 32.5758822766183 3.4169503272636614 27.825000000000003 
177 59 2 0.527 32.5758822766183 1.9030496727363388 27.825000000000003 
178 60 1 -1.054 30.8 22.189999999999998 15.61 
179 60 2 0.527 31.385882276618297 22.94695032726366 15.61 
180 60 2 0.527 31.385882276618297 21.433049672736338 15.61 
181 61 1 -1.054 12.11 15.469999999999999 31.5 
182 61 2 0.527 12.695882276618294 16.226950327263662 31.5 
183 61 2 0.527 12.695882276618294 14.713049672736338 31.5 
184 62 1 -1.054 11.305 10.605 17.15 
185 62 2 0.527 11.890882276618296 11.361950327263662 17.15 
186 62 2 0.527 11.890882276618296 9.84804967273634 17.15 
187 63 1 -1.054 7.7700000000000005 3.955 15.225 
188 63 2 0.527 8.355882276618296 4.711950327263661 15.225 
189 63 2 0.527 8.355882276618296 3.1980496727363388 15.225 
190 64 1 -1.054 8.015 5.775 30.345 
191 64 2 0.527 8.600882276618295 6.531950327263662 30.345 
192 64 2 0.527 8.600882276618295 5.018049672736339 30.345 
193 65 1 -1.054 14.175 5.495 7.279999999999999 
194 65 2 0.527 14.760882276618295 6.251950327263661 7.279999999999999 
195 65 2 0.527 14.760882276618295 4.738049672736339 7.279999999999999 
196 66 1 -1.054 7.945 17.08 18.410000000000004 
197 66 2 0.527 8.530882276618295 17.83695032726366 18.410000000000004 
198 66 2 0.527 8.530882276618295 16.32304967273634 18.410000000000004 
199 67 1 -1.054 25.76 10.29 3.325 
200 67 2 0.527 26.345882276618298 11.04695032726366 3.325 
201 67 2 0.527 26.345882276618298 9.533049672736338 3.325 
202 68 1 -1.054 7.42 16.380000000000003 3.955 
203 68 2 0.527 8.005882276618294 17.136950327263662 3.955 
204 68 2 0.527 8.005882276618294 15.62304967273634 3.955 
205 69 1 -1.054 17.92 34.615 34.545 
206 69 2 0.527 18.505882276618294 35.37195032726366 34.545 
207 69 2 0.527 18.505882276618294 33.85804967273634 34.545 
208 70 1 -1.054 28.91 20.509999999999998 13.125 
209 70 2 0.527 29.495882276618296 21.266950327263658 13.125 
210 70 2 0.527 29.495882276618296 19.753049672736335 13.125 
211 71 1 -1.054 26.845 2.1 2.065 
212 71 2 0.527 27.430882276618295 2.856950327263661 2.065 
213 71 2 0.527 27.430882276618295 1.3430496727363388 2.065 
214 72 1 -1.054 12.355 29.4 26.46 
215 72 2 0.527 12.940882276618295 30.15695032726366 26.46 
216 72 2 0.527 12.940882276618295 28.64304967273634 26.46 
217 73 1 -1.054 16.52 7.875 15.504999999999999 
218 73 2 0.527 17.105882276618296 8.631950327263661 15.504999999999999 
219 73 2 0.527 17.105882276618296 7.118049672736339 15.504999999999999 
220 74 1 -1.054 8.89 11.935 25.13 
221 74 2 0.527 9.475882276618295 12.691950327263662 25.13 
222 74 2 0.527 9.475882276618295 11.17804967273634 25.13 
223 75 1 -1.054 3.8850000000000002 25.13 14.14 
224 75 2 0.527 4.470882276618295 25.886950327263662 14.14 
225 75 2 0.527 4.470882276618295 24.373049672736336 14.14 
226 76 1 -1.054 5.6000000000000005 2.7300000000000004 15.049999999999999 
227 76 2 0.527 6.185882276618296 3.4869503272636617 15.049999999999999 
228 76 2 0.527 6.185882276618296 1.973049672736339 15.049999999999999 
229 77 1 -1.054 7.385 23.800000000000004 8.61 
230 77 2 0.527 7.970882276618294 24.556950327263664 8.61 
231 77 2 0.527 7.970882276618294 23.04304967273634 8.61 
232 78 1 -1.054 33.04 22.259999999999998 20.229999999999997 
233 78 2 0.527 33.6258822766183 23.01695032726366 20.229999999999997 
234 78 2 0.527 33.6258822766183 21.50304967273634 20.229999999999997 
235 79 1 -1.054 27.58 34.615 31.885000000000005 
236 79 2 0.527 28.165882276618298 35.37195032726366 31.885000000000005 
237 79 2 0.527 28.165882276618298 33.85804967273634 31.885000000000005 
238 80 1 -1.054 12.249999999999998 6.720000000000001 8.96 
239 80 2 0.527 12.835882276618293 7.476950327263662 8.96 
240 80 2 0.527 12.835882276618293 5.963049672736339 8.96 
241 81 1 -1.054 33.6 21.945 1.8199999999999998 
242 81 2 0.527 34.185882276618294 22.701950327263663 1.8199999999999998 
243 81 2 0.527 34.185882276618294 21.18804967273634 1.8199999999999998 
244 82 1 -1.054 22.680000000000003 15.19 17.22 
245 82 2 0.527 23.2658822766183 15.94695032726366 17.22 
246 82 2 0.527 23.2658822766183 14.433049672736338 17.22 
247 83 1 -1.054 30.835 17.535 4.095000000000001 
248 83 2 0.527 31.420882276618297 18.291950327263663 4.095000000000001 
249 83 2 0.527 31.420882276618297 16.77804967273634 4.095000000000001 
250 84 1 -1.054 19.425 5.880000000000001 26.880000000000003 
251 84 2 0.527 20.010882276618297 6.636950327263662 26.880000000000003 
252 84 2 0.527 20.010882276618297 5.1230496727363395 26.880000000000003 
253 85 1 -1.054 9.625000000000002 25.095 14.245 
254 85 2 0.527 10.210882276618296 25.851950327263662 14.245 
255 85 2 0.527 10.210882276618296 24.33804967273634 14.245 
256 86 1 -1.054 34.230000000000004 10.815 13.334999999999999 
257 86 2 0.527 34.8158822766183 11.57195032726366 13.334999999999999 
258 86 2 0.527 34.8158822766183 10.058049672736338 13.334999999999999 
259 87 1 -1.054 2.45 20.09 18.515 
260 87 2 0.527 3.0358822766182954 20.84695032726366 18.515 
261 87 2 0.527 3.0358822766182954 19.333049672736337 18.515 
262 88 1 -1.054 22.61 1.1900000000000002 6.124999999999999 
263 88 2 0.527 23.1958822766183 1.9469503272636612 6.124999999999999 
264 88 2 0.527 23.1958822766183 0.43304967273633893 6.124999999999999 
265 89 1 -1.054 4.655 20.825 32.760000000000005 
266 89 2 0.527 5.240882276618295 21.581950327263662 32.760000000000005 
267 89 2 0.527 5.240882276618295 20.06804967273634 32.760000000000005 
268 90 1 -1.054 14.349999999999998 19.88 24.01 
269 90 2 0.527 14.935882276618294 20.636950327263655 24.01 
270 90 2 0.527 14.935882276618294 19.123049672736336 24.01 
271 91 1 -1.054 1.54 6.720000000000001 11.585 
272 91 2 0.527 2.125882276618295 7.476950327263662 11.585 
273 91 2 0.527 2.125882276618295 5.963049672736339 11.585 
274 92 1 -1.054 4.095000000000001 9.73 21.0 
275 92 2 0.527 4.680882276618295 10.486950327263662 21.0 
276 92 2 0.527 4.680882276618295 8.97304967273634 21.0 
277 93 1 -1.054 24.71 2.17 11.690000000000001 
278 93 2 0.527 25.295882276618297 2.9269503272636612 11.690000000000001 
279 93 2 0.527 25.295882276618297 1.413049672736339 11.690000000000001 
280 94 1 -1.054 17.115000000000002 27.125 9.450000000000001 
281 94 2 0.527 17.700882276618294 27.88195032726366 9.450000000000001 
282 94 2 0.527 17.700882276618294 26.368049672736337 9.450000000000001 
283 95 1 -1.054 11.97 3.955 31.255000000000003 
284 95 2 0.527 12.555882276618295 4.711950327263661 31.255000000000003 
285 95 2 0.527 12.555882276618295 3.1980496727363388 31.255000000000003 
286 96 1 -1.054 23.205 2.1 34.895 
287 96 2 0.527 23.790882276618298 2.856950327263661 34.895 
288 96 2 0.527 23.790882276618298 1.3430496727363388 34.895 
289 97 1 -1.054 31.815 33.775 22.785000000000004 
290 97 2 0.527 32.4008822766183 34.53195032726366 22.785000000000004 
291 97 2 0.527 32.4008822766183 33.01804967273634 22.785000000000004 
292 98 1 -1.054 22.925 17.5 25.235 
293 98 2 0.527 23.510882276618297 18.25695032726366 25.235 
294 98 2 0.527 23.510882276618297 16.74304967273634 25.235 
295 99 1 -1.054 10.99 8.225 11.83 
296 99 2 0.527 11.575882276618294 8.981950327263661 11.83 
297 99 2 0.527 11.575882276618294 7.468049672736338 11.83 
298 100 1 -1.054 9.905 23.205 18.235 
299 100 2 0.527 10.490882276618294 23.96195032726366 18.235 
300 100 2 0.527 10.490882276618294 22.44804967273634 18.235 
301 101 1 -1.054 17.99 7.07 23.380000000000003 
302 101 2 0.527 18.575882276618294 7.826950327263662 23.380000000000003 
303 101 2 0.527 18.575882276618294 6.313049672736339 23.380000000000003 
304 102 1 -1.054 19.18 23.240000000000002 32.235 
305 102 2 0.527 19.765882276618296 23.996950327263665 32.235 
306 102 2 0.527 19.765882276618296 22.483049672736342 32.235 
307 103 1 -1.054 6.615 27.86 13.614999999999998 
308 103 2 0.527 7.2008822766182945 28.616950327263663 13.614999999999998 
309 103 2 0.527 7.2008822766182945 27.10304967273634 13.614999999999998 
310 104 1 -1.054 34.405 24.185 13.93 
311 104 2 0.527 34.9908822766183 24.941950327263662 13.93 
312 104 2 0.527 34.9908822766183 23.428049672736336 13.93 
313 105 1 -1.054 2.065 2.1 15.575000000000001 
314 105 2 0.527 2.6508822766182947 2.856950327263661 15.575000000000001 
315 105 2 0.527 2.6508822766182947 1.3430496727363388 15.575000000000001 
316 106 1 -1.054 20.404999999999998 33.775 21.805 
317 106 2 0.527 20.990882276618294 34.53195032726366 21.805 
318 106 2 0.527 20.990882276618294 33.01804967273634 21.805 
319 107 1 -1.054 32.760000000000005 21.909999999999997 29.54 
320 107 2 0.527 33.3458822766183 22.66695032726366 29.54 
321 107 2 0.527 33.3458822766183 21.153049672736337 29.54 
322 108 1 -1.054 4.760000000000001 21.7 1.96 
323 108 2 0.527 5.345882276618296 22.456950327263662 1.96 
324 108 2 0.527 5.345882276618296 20.943049672736336 1.96 
325 109 1 -1.054 20.72 24.255 27.615000000000002 
326 109 2 0.527 21.3058822766183 25.011950327263662 27.615000000000002 
327 109 2 0.527 21.3058822766183 23.49804967273634 27.615000000000002 
328 110 1 -1.054 34.125 12.88 2.59 
329 110 2 0.527 34.7108822766183 13.636950327263662 2.59 
330 110 2 0.527 34.7108822766183 12.12304967273634 2.59 
331 111 1 -1.054 20.124999999999996 34.754999999999995 4.97 
332 111 2 0.527 20.710882276618293 35.51195032726366 4.97 
333 111 2 0.527 20.710882276618293 33.998049672736336 4.97 
334 112 1 -1.054 28.28 5.6000000000000005 0.45499999999999996 
335 112 2 0.527 28.8658822766183 6.356950327263662 0.45499999999999996 
336 112 2 0.527 28.8658822766183 4.843049672736339 0.45499999999999996 
337 113 1 -1.054 34.51 32.2 7.105 
338 113 2 0.527 35.0958822766183 32.95695032726366 7.105 
339 113 2 0.527 35.0958822766183 31.44304967273634 7.105 
340 114 1 -1.054 25.794999999999998 17.745 8.015 
341 114 2 0.527 26.380882276618294 18.50195032726366 8.015 
342 114 2 0.527 26.380882276618294 16.988049672736338 8.015 
343 115 1 -1.054 21.63 18.375 21.069999999999997 
344 115 2 0.527 22.215882276618295 19.131950327263663 21.069999999999997 
345 115 2 0.527 22.215882276618295 17.61804967273634 21.069999999999997 
346 116 1 -1.054 12.95 16.03 28.979999999999997 
347 116 2 0.527 13.535882276618294 16.78695032726366 28.979999999999997 
348 116 2 0.527 13.535882276618294 15.273049672736338 28.979999999999997 
349 117 1 -1.054 21.21 30.135 31.604999999999997 
350 117 2 0.527 21.795882276618297 30.89195032726366 31.604999999999997 
351 117 2 0.527 21.795882276618297 29.37804967273634 31.604999999999997 
352 118 1 -1.054 5.985 3.115 19.74 
353 118 2 0.527 6.5708822766182955 3.8719503272636615 19.74 
354 118 2 0.527 6.5708822766182955 2.358049672736339 19.74 
355 119 1 -1.054 24.604999999999997 32.410000000000004 20.825 
356 119 2 0.527 25.190882276618293 33.16695032726366 20.825 
357 119 2 0.527 25.190882276618293 31.65304967273634 20.825 
358 120 1 -1.054 20.124999999999996 15.785 0.35000000000000003 
359 120 2 0.527 20.710882276618293 16.541950327263663 0.35000000000000003 
360 120 2 0.527 20.710882276618293 15.028049672736339 0.35000000000000003 
361 121 1 -1.054 9.695 34.055 25.619999999999997 
362 121 2 0.527 10.280882276618295 34.81195032726366 25.619999999999997 
363 121 2 0.527 10.280882276618295 33.29804967273634 25.619999999999997 
364 122 1 -1.054 8.61 7.21 23.415 
365 122 2 0.527 9.195882276618295 7.966950327263661 23.415 
366 122 2 0.527 9.195882276618295 6.453049672736339 23.415 
367 123 1 -1.054 15.084999999999999 32.305 33.144999999999996 
368 123 2 0.527 15.670882276618293 33.06195032726366 33.144999999999996 
369 123 2 0.527 15.670882276618293 31.54804967273634 33.144999999999996 
370 124 1 -1.054 16.835 13.965 4.445 
371 124 2 0.527 17.420882276618293 14.721950327263663 4.445 
372 124 2 0.527 17.420882276618293 13.20804967273634 4.445 
373 125 1 -1.054 17.884999999999998 14.945 29.259999999999998 
374 125 2 0.527 18.470882276618294 15.70195032726366 29.259999999999998 
375 125 2 0.527 18.470882276618294 14.188049672736337 29.259999999999998 
376 126 1 -1.054 3.15 26.53 23.59 
377 126 2 0.527 3.7358822766182946 27.28695032726366 23.59 
378 126 2 0.527 3.7358822766182946 25.773049672736338 23.59 
379 127 1 -1.054 18.130000000000003 11.725000000000001 20.335 
380 127 2 0.527 18.715882276618295 12.481950327263663 20.335 
381 127 2 0.527 18.715882276618295 10.96804967273634 20.335 
382 128 1 -1.054 29.924999999999997 17.08 24.92 
383 128 2 0.527 30.510882276618293 17.83695032726366 24.92 
384 128 2 0.527 30.510882276618293 16.32304967273634 24.92 
385 129 1 -1.054 29.785 13.65 2.52 
386 129 2 0.527 30.370882276618296 14.406950327263662 2.52 
387 129 2 0.527 30.370882276618296 12.893049672736339 2.52 
388 130 1 -1.054 11.48 12.355 6.055 
389 130 2 0.527 12.065882276618296 13.111950327263662 6.055 
390 130 2 0.527 12.065882276618296 11.59804967273634 6.055 
391 131 1 -1.054 1.295 3.675 17.465 
392 131 2 0.527 1.880882276618295 4.431950327263661 17.465 
393 131 2 0.527 1.880882276618295 2.9180496727363385 17.465 
394 132 1 -1.054 19.74 4.41 10.43 
395 132 2 0.527 20.325882276618294 5.1669503272636605 10.43 
396 132 2 0.527 20.325882276618294 3.653049672736339 10.43 
397 133 1 -1.054 1.8199999999999998 16.869999999999997 33.04 
398 133 2 0.527 2.405882276618295 17.62695032726366 33.04 
399 133 2 0.527 2.405882276618295 16.113049672736338 33.04 
400 134 1 -1.054 30.240000000000002 14.175 16.17 
401 134 2 0.527 30.825882276618298 14.93195032726366 16.17 
402 134 2 0.527 30.825882276618298 13.418049672736338 16.17 
403 135 1 -1.054 15.4 27.475 2.8000000000000003 
404 135 2 0.527 15.985882276618295 28.23195032726366 2.8000000000000003 
405 135 2 0.527 15.985882276618295 26.71804967273634 2.8000000000000003 
406 136 1 -1.054 30.415 13.02 9.520000000000001 
407 136 2 0.527 31.0008822766183 13.776950327263663 9.520000000000001 
408 136 2 0.527 31.0008822766183 12.26304967273634 9.520000000000001 
409 137 1 -1.054 5.390000000000001 4.48 30.415 
410 137 2 0.527 5.975882276618295 5.236950327263661 30.415 
411 137 2 0.527 5.975882276618295 3.7230496727363387 30.415 
412 138 1 -1.054 21.909999999999997 14.98 27.09 
413 138 2 0.527 22.495882276618296 15.736950327263662 27.09 
414 138 2 0.527 22.495882276618296 14.22304967273634 27.09 
415 139 1 -1.054 2.0300000000000002 13.72 27.160000000000004 
416 139 2 0.527 2.615882276618295 14.476950327263662 27.160000000000004 
417 139 2 0.527 2.615882276618295 12.96304967273634 27.160000000000004 
418 140 1 -1.054 17.745 14.349999999999998 13.440000000000001 
419 140 2 0.527 18.330882276618294 15.10695032726366 13.440000000000001 
420 140 2 0.527 18.330882276618294 13.593049672736337 13.440000000000001 
421 141 1 -1.054 33.46 21.385 13.125 
422 141 2 0.527 34.0458822766183 22.14195032726366 13.125 
423 141 2 0.527 34.0458822766183 20.62804967273634 13.125 
424 142 1 -1.054 21.875 27.335 17.29 
425 142 2 0.527 22.460882276618296 28.091950327263664 17.29 
426 142 2 0.527 22.460882276618296 26.57804967273634 17.29 
427 143 1 -1.054 30.485 14.384999999999998 21.069999999999997 
428 143 2 0.527 31.070882276618295 15.141950327263661 21.069999999999997 
429 143 2 0.527 31.070882276618295 13.628049672736338 21.069999999999997 
430 144 1 -1.054 6.51 27.545 4.83 
431 144 2 0.527 7.095882276618295 28.30195032726366 4.83 
432 144 2 0.527 7.095882276618295 26.788049672736342 4.83 
433 145 1 -1.054 11.725000000000001 14.175 23.695000000000004 
434 145 2 0.527 12.310882276618296 14.93195032726366 23.695000000000004 
435 145 2 0.527 12.310882276618296 13.418049672736338 23.695000000000004 
436 146 1 -1.054 18.165 1.1900000000000002 15.19 
437 146 2 0.527 18.750882276618295 1.9469503272636612 15.19 
438 146 2 0.527 18.750882276618295 0.43304967273633893 15.19 
439 147 1 -1.054 26.634999999999998 22.54 7.98 
440 147 2 0.527 27.220882276618298 23.296950327263662 7.98 
441 147 2 0.527 27.220882276618298 21.78304967273634 7.98 
442 148 1 -1.054 16.589999999999996 29.47 13.265 
443 148 2 0.527 17.175882276618292 30.226950327263662 13.265 
444 148 2 0.527 17.175882276618292 28.71304967273634 13.265 
445 149 1 -1.054 29.049999999999997 25.585 21.665 
446 149 2 0.527 29.635882276618297 26.34195032726366 21.665 
447 149 2 0.527 29.635882276618297 24.828049672736338 21.665 
448 150 1 -1.054 23.03 8.82 27.405 
449 150 2 0.527 23.615882276618297 9.576950327263662 27.405 
450 150 2 0.527 23.615882276618297 8.063049672736339 27.405 
451 151 1 -1.054 26.810000000000002 8.190000000000001 0.07 
452 151 2 0.527 27.3958822766183 8.946950327263663 0.07 
453 151 2 0.527 27.3958822766183 7.433049672736339 0.07 
454 152 1 -1.054 23.87 32.935 1.4000000000000001 
455 152 2 0.527 24.455882276618297 33.69195032726366 1.4000000000000001 
456 152 2 0.527 24.455882276618297 32.178049672736336 1.4000000000000001 
457 153 1 -1.054 0.77 19.985 20.545 
458 153 2 0.527 1.3558822766182947 20.74195032726366 20.545 
459 153 2 0.527 1.3558822766182947 19.22804967273634 20.545 
460 154 1 -1.054 31.604999999999997 9.8 6.09 
461 154 2 0.527 32.1908822766183 10.55695032726366 6.09 
462 154 2 0.527 32.1908822766183 9.04304967273634 6.09 
463 155 1 -1.054 23.975 3.01 28.14 
464 155 2 0.527 24.560882276618297 3.766950327263661 28.14 
465 155 2 0.527 24.560882276618297 2.2530496727363385 28.14 
466 156 1 -1.054 7.105 30.8 0.035 
467 156 2 0.527 7.690882276618295 31.556950327263664 0.035 
468 156 2 0.527 7.690882276618295 30.043049672736338 0.035 
469 157 1 -1.054 3.745 28.070000000000004 30.835 
470 157 2 0.527 4.330882276618294 28.826950327263667 30.835 
471 157 2 0.527 4.330882276618294 27.31304967273634 30.835 
472 158 1 -1.054 20.229999999999997 20.124999999999996 0.315 
473 158 2 0.527 20.815882276618293 20.88195032726366 0.315 
474 158 2 0.527 20.815882276618293 19.368049672736337 0.315 
475 159 1 -1.054 5.985 34.65 24.884999999999998 
476 159 2 0.527 6.5708822766182955 35.40695032726366 24.884999999999998 
477 159 2 0.527 6.5708822766182955 33.89304967273634 24.884999999999998 
478 160 1 -1.054 12.389999999999999 22.015 5.390000000000001 
479 160 2 0.527 12.975882276618293 22.771950327263664 5.390000000000001 
480 160 2 0.527 12.975882276618293 21.25804967273634 5.390000000000001 
481 161 1 -1.054 10.5 10.780000000000001 14.105 
482 161 2 0.527 11.085882276618296 11.536950327263662 14.105 
483 161 2 0.527 11.085882276618296 10.02304967273634 14.105 
484 162 1 -1.054 26.53 10.08 13.09 
485 162 2 0.527 27.115882276618297 10.836950327263661 13.09 
486 162 2 0.527 27.115882276618297 9.323049672736339 13.09 
487 163 1 -1.054 30.205000000000002 29.364999999999995 26.005 
488 163 2 0.527 30.790882276618298 30.121950327263658 26.005 
489 163 2 0.527 30.790882276618298 28.608049672736335 26.005 
490 164 1 -1.054 12.669999999999998 24.604999999999997 7.595 
491 164 2 0.527 13.255882276618294 25.361950327263656 7.595 
492 164 2 0.527 13.255882276618294 23.848049672736337 7.595 
493 165 1 -1.054 0.8400000000000001 22.505000000000003 25.585 
494 165 2 0.527 1.425882276618295 23.261950327263662 25.585 
495 165 2 0.527 1.425882276618295 21.74804967273634 25.585 
496 166 1 -1.054 1.4700000000000002 28.665 12.565 
497 166 2 0.527 2.0558822766182954 29.42195032726366 12.565 
498 166 2 0.527 2.0558822766182954 27.908049672736336 12.565 
499 167 1 -1.054 16.45 3.22 3.3950000000000005 
500 167 2 0.527 17.035882276618295 3.9769503272636615 3.3950000000000005 
501 167 2 0.527 17.035882276618295 2.463049672736339 3.3950000000000005 
502 168 1 -1.054 5.53 11.41 6.65 
503 168 2 0.527 6.115882276618295 12.166950327263661 6.65 
504 168 2 0.527 6.115882276618295 10.653049672736339 6.65 
505 169 1 -1.054 16.03 29.4 34.615 
506 169 2 0.527 16.615882276618294 30.15695032726366 34.615 
507 169 2 0.527 16.615882276618294 28.64304967273634 34.615 
508 170 1 -1.054 25.06 24.29 11.515 
509 170 2 0.527 25.645882276618295 25.04695032726366 11.515 
510 170 2 0.527 25.645882276618295 23.533049672736336 11.515 
511 171 1 -1.054 34.02 16.975 32.550000000000004 
512 171 2 0.527 34.605882276618296 17.73195032726366 32.550000000000004 
513 171 2 0.527 34.605882276618296 16.21804967273634 32.550000000000004 
514 172 1 -1.054 0.7350000000000001 27.229999999999997 32.97 
515 172 2 0.527 1.320882276618295 27.98695032726366 32.97 
516 172 2 0.527 1.320882276618295 26.473049672736337 32.97 
517 173 1 -1.054 28.28 27.475 9.975 
518 173 2 0.527 28.8658822766183 28.23195032726366 9.975 
519 173 2 0.527 28.8658822766183 26.71804967273634 9.975 
520 174 1 -1.054 17.675 30.975 26.11 
521 174 2 0.527 18.260882276618297 31.73195032726366 26.11 
522 174 2 0.527 18.260882276618297 30.218049672736342 26.11 
523 175 1 -1.054 7.7 28.874999999999996 10.5 
524 175 2 0.527 8.285882276618295 29.63195032726366 10.5 
525 175 2 0.527 8.285882276618295 28.118049672736337 10.5 
526 176 1 -1.054 6.615 4.2 0.525 
527 176 2 0.527 7.2008822766182945 4.9569503272636615 0.525 
528 176 2 0.527 7.2008822766182945 3.4430496727363384 0.525 
529 177 1 -1.054 12.04 8.469999999999999 2.1 
530 177 2 0.527 12.625882276618295 9.226950327263662 2.1 
531 177 2 0.527 12.625882276618295 7.7130496727363385 2.1 
532 178 1 -1.054 27.37 5.425 3.185 
533 178 2 0.527 27.955882276618297 6.181950327263661 3.185 
534 178 2 0.527 27.955882276618297 4.6680496727363385 3.185 
535 179 1 -1.054 28.385 14.489999999999998 8.925 
536 179 2 0.527 28.970882276618298 15.24695032726366 8.925 
537 179 2 0.527 28.970882276618298 13.733049672736337 8.925 
538 180 1 -1.054 29.295 32.480000000000004 21.14 
539 180 2 0.527 29.880882276618298 33.23695032726366 21.14 
540 180 2 0.527 29.880882276618298 31.72304967273634 21.14 
541 181 1 -1.054 8.75 34.79 8.190000000000001 
542 181 2 0.527 9.335882276618294 35.54695032726366 8.190000000000001 
543 181 2 0.527 9.335882276618294 34.03304967273634 8.190000000000001 
544 182 1 -1.054 32.795 10.254999999999999 29.33 
545 182 2 0.527 33.380882276618294 11.01195032726366 29.33 
546 182 2 0.527 33.380882276618294 9.498049672736338 29.33 
547 183 1 -1.054 4.9 15.575000000000001 16.275000000000002 
548 183 2 0.527 5.4858822766182955 16.331950327263662 16.275000000000002 
549 183 2 0.527 5.4858822766182955 14.81804967273634 16.275000000000002 
550 184 1 -1.054 16.03 10.184999999999999 3.71 
551 184 2 0.527 16.615882276618294 10.941950327263662 3.71 
552 184 2 0.527 16.615882276618294 9.42804967273634 3.71 
553 185 1 -1.054 24.955 24.045 1.715 
554 185 2 0.527 25.540882276618294 24.80195032726366 1.715 
555 185 2 0.527 25.540882276618294 23.28804967273634 1.715 
556 186 1 -1.054 2.8350000000000004 25.270000000000003 17.29 
557 186 2 0.527 3.420882276618295 26.026950327263663 17.29 
558 186 2 0.527 3.420882276618295 24.51304967273634 17.29 
559 187 1 -1.054 12.145 18.970000000000002 33.355 
560 187 2 0.527 12.730882276618294 19.726950327263665 33.355 
561 187 2 0.527 12.730882276618294 18.21304967273634 33.355 
562 188 1 -1.054 2.625 26.74 8.855 
563 188 2 0.527 3.2108822766182947 27.49695032726366 8.855 
564 188 2 0.527 3.2108822766182947 25.98304967273634 8.855 
565 189 1 -1.054 27.755000000000003 30.415 6.825 
566 189 2 0.527 28.3408822766183 31.171950327263662 6.825 
567 189 2 0.527 28.3408822766183 29.65804967273634 6.825 
568 190 1 -1.054 27.265 1.26 16.73 
569 190 2 0.527 27.8508822766183 2.016950327263661 16.73 
570 190 2 0.527 27.8508822766183 0.5030496727363388 16.73 
571 191 1 -1.054 4.795 29.994999999999997 0.7000000000000001 
572 191 2 0.527 5.380882276618295 30.75195032726366 0.7000000000000001 
573 191 2 0.527 5.380882276618295 29.238049672736338 0.7000000000000001 
574 192 1 -1.054 7.7 29.89 24.045 
575 192 2 0.527 8.285882276618295 30.64695032726366 24.045 
576 192 2 0.527 8.285882276618295 29.133049672736337 24.045 
577 193 1 -1.054 29.714999999999996 5.775 5.635 
578 193 2 0.527 30.300882276618296 6.531950327263662 5.635 
579 193 2 0.527 30.300882276618296 5.018049672736339 5.635 
580 194 1 -1.054 32.62 33.879999999999995 17.43 
581 194 2 0.527 33.2058822766183 34.63695032726366 17.43 
582 194 2 0.527 33.2058822766183 33.123049672736336 17.43 
583 195 1 -1.054 32.095 30.38 15.365 
584 195 2 0.527 32.6808822766183 31.13695032726366 15.365 
585 195 2 0.527 32.6808822766183 29.623049672736336 15.365 
586 196 1 -1.054 7.734999999999999 27.720000000000002 31.71 
587 196 2 0.527 8.320882276618294 28.476950327263665 31.71 
588 196 2 0.527 8.320882276618294 26.96304967273634 31.71 
589 197 1 -1.054 8.785 27.37 19.250000000000004 
590 197 2 0.527 9.370882276618296 28.126950327263664 19.250000000000004 
591 197 2 0.527 9.370882276618296 26.613049672736338 19.250000000000004 
592 198 1 -1.054 30.87 1.295 6.16 
593 198 2 0.527 31.455882276618297 2.0519503272636612 6.16 
594 198 2 0.527 31.455882276618297 0.5380496727363389 6.16 
595 199 1 -1.054 28.63 33.25 16.065 
596 199 2 0.527 29.215882276618295 34.00695032726366 16.065 
597 199 2 0.527 29.215882276618295 32.49304967273633 16.065 
598 200 1 -1.054 34.965 7.035 29.645000000000003 
599 200 2 0.527 35.550882276618296 7.791950327263661 29.645000000000003 
600 200 2 0.527 35.550882276618296 6.278049672736339 29.645000000000003 
601 201 1 -1.054 2.24 16.765 10.605 
602 201 2 0.527 2.825882276618295 17.52195032726366 10.605 
603 201 2 0.527 2.825882276618295 16.008049672736337 10.605 
604 202 1 -1.054 6.404999999999999 6.3 15.575000000000001 
605 202 2 0.527 6.9908822766182945 7.056950327263661 15.575000000000001 
606 202 2 0.527 6.9908822766182945 5.5430496727363385 15.575000000000001 
607 203 1 -1.054 19.635 24.604999999999997 1.575 
608 203 2 0.527 20.220882276618298 25.361950327263656 1.575 
609 203 2 0.527 20.220882276618298 23.848049672736337 1.575 
610 204 1 -1.054 11.760000000000002 19.705 12.005 
611 204 2 0.527 12.345882276618296 20.46195032726366 12.005 
612 204 2 0.527 12.345882276618296 18.94804967273634 12.005 
613 205 1 -1.054 11.900000000000002 26.775000000000002 19.39 
614 205 2 0.527 12.485882276618296 27.531950327263665 19.39 
615 205 2 0.527 12.485882276618296 26.01804967273634 19.39 
616 206 1 -1.054 28.699999999999996 19.67 17.185 
617 206 2 0.527 29.285882276618295 20.42695032726366 17.185 
618 206 2 0.527 29.285882276618295 18.91304967273634 17.185 
619 207 1 -1.054 13.3 12.32 0.63 
620 207 2 0.527 13.885882276618295 13.076950327263662 0.63 
621 207 2 0.527 13.885882276618295 11.563049672736339 0.63 
622 208 1 -1.054 20.93 0.17500000000000002 8.085 
623 208 2 0.527 21.515882276618296 0.9319503272636611 8.085 
624 208 2 0.527 21.515882276618296 -0.5819503272636611 8.085 
625 209 1 -1.054 6.404999999999999 22.645 13.825000000000001 
626 209 2 0.527 6.9908822766182945 23.401950327263663 13.825000000000001 
627 209 2 0.527 6.9908822766182945 21.888049672736337 13.825000000000001 
628 210 1 -1.054 25.025 27.335 16.73 
629 210 2 0.527 25.610882276618298 28.091950327263664 16.73 
630 210 2 0.527 25.610882276618298 26.57804967273634 16.73 
631 211 1 -1.054 27.37 26.810000000000002 26.880000000000003 
632 211 2 0.527 27.955882276618297 27.566950327263662 26.880000000000003 
633 211 2 0.527 27.955882276618297 26.05304967273634 26.880000000000003 
634 212 1 -1.054 4.55 2.9400000000000004 1.1900000000000002 
635 212 2 0.527 5.135882276618295 3.6969503272636617 1.1900000000000002 
636 212 2 0.527 5.135882276618295 2.183049672736339 1.1900000000000002 
637 213 1 -1.054 14.21 31.955 8.925 
638 213 2 0.527 14.795882276618295 32.711950327263665 8.925 
639 213 2 0.527 14.795882276618295 31.19804967273634 8.925 
640 214 1 -1.054 4.655 34.3 0.8400000000000001 
641 214 2 0.527 5.240882276618295 35.05695032726366 0.8400000000000001 
642 214 2 0.527 5.240882276618295 33.54304967273634 0.8400000000000001 
643 215 1 -1.054 27.160000000000004 28.035 0.35000000000000003 
644 215 2 0.527 27.7458822766183 28.791950327263663 0.35000000000000003 
645 215 2 0.527 27.7458822766183 27.27804967273634 0.35000000000000003 
646 216 1 -1.054 33.775 3.08 5.32 
647 216 2 0.527 34.3608822766183 3.8369503272636614 5.32 
648 216 2 0.527 34.3608822766183 2.3230496727363388 5.32 
649 217 1 -1.054 24.429999999999996 23.520000000000003 28.28 
650 217 2 0.527 25.015882276618292 24.276950327263663 28.28 
651 217 2 0.527 25.015882276618292 22.763049672736344 28.28 
652 218 1 -1.054 21.490000000000002 31.465 26.880000000000003 
653 218 2 0.527 22.075882276618298 32.22195032726366 26.880000000000003 
654 218 2 0.527 22.075882276618298 30.70804967273634 26.880000000000003 
655 219 1 -1.054 18.795 0.8400000000000001 28.735 
656 219 2 0.527 19.380882276618298 1.5969503272636612 28.735 
657 219 2 0.527 19.380882276618298 0.0830496727363389 28.735 
658 220 1 -1.054 14.629999999999999 6.930000000000001 21.035 
659 220 2 0.527 15.215882276618293 7.686950327263662 21.035 
660 220 2 0.527 15.215882276618293 6.173049672736339 21.035 
661 221 1 -1.054 19.6 8.75 13.3 
662 221 2 0.527 20.185882276618297 9.506950327263661 13.3 
663 221 2 0.527 20.185882276618297 7.993049672736339 13.3 
664 222 1 -1.054 27.510000000000005 2.555 8.575 
665 222 2 0.527 28.0958822766183 3.3119503272636615 8.575 
666 222 2 0.527 28.0958822766183 1.7980496727363389 8.575 
667 223 1 -1.054 31.57 25.76 32.13 
668 223 2 0.527 32.1558822766183 26.51695032726366 32.13 
669 223 2 0.527 32.1558822766183 25.00304967273634 32.13 
670 224 1 -1.054 14.7 17.78 13.79 
671 224 2 0.527 15.285882276618295 18.53695032726366 13.79 
672 224 2 0.527 15.285882276618295 17.023049672736338 13.79 
673 225 1 -1.054 7.42 10.780000000000001 3.99 
674 225 2 0.527 8.005882276618294 11.536950327263662 3.99 
675 225 2 0.527 8.005882276618294 10.02304967273634 3.99 
676 226 1 -1.054 7.664999999999999 9.17 26.74 
677 226 2 0.527 8.250882276618295 9.926950327263661 26.74 
678 226 2 0.527 8.250882276618295 8.413049672736339 26.74 
679 227 1 -1.054 7.5600000000000005 7.454999999999999 18.585 
680 227 2 0.527 8.145882276618295 8.211950327263661 18.585 
681 227 2 0.527 8.145882276618295 6.698049672736338 18.585 
682 228 1 -1.054 22.330000000000002 31.395 9.275 
683 228 2 0.527 22.915882276618298 32.15195032726366 9.275 
684 228 2 0.527 22.915882276618298 30.638049672736337 9.275 
685 229 1 -1.054 28.315 28.49 22.854999999999997 
686 229 2 0.527 28.900882276618297 29.246950327263658 22.854999999999997 
687 229 2 0.527 28.900882276618297 27.733049672736335 22.854999999999997 
688 230 1 -1.054 1.925 28.49 6.825 
689 230 2 0.527 2.510882276618295 29.246950327263658 6.825 
690 230 2 0.527 2.510882276618295 27.733049672736335 6.825 
691 231 1 -1.054 13.16 34.230000000000004 29.154999999999998 
692 231 2 0.527 13.745882276618296 34.98695032726366 29.154999999999998 
693 231 2 0.527 13.745882276618296 33.47304967273634 29.154999999999998 
694 232 1 -1.054 19.495 23.625000000000004 11.725000000000001 
695 232 2 0.527 20.080882276618297 24.381950327263663 11.725000000000001 
696 232 2 0.527 20.080882276618297 22.86804967273634 11.725000000000001 
697 233 1 -1.054 12.6 9.8 33.214999999999996 
698 233 2 0.527 13.185882276618294 10.55695032726366 33.214999999999996 
699 233 2 0.527 13.185882276618294 9.04304967273634 33.214999999999996 
700 234 1 -1.054 30.064999999999998 31.325000000000003 30.169999999999998 
701 234 2 0.527 30.650882276618297 32.08195032726366 30.169999999999998 
702 234 2 0.527 30.650882276618297 30.568049672736343 30.169999999999998 
703 235 1 -1.054 17.044999999999998 12.04 33.144999999999996 
704 235 2 0.527 17.630882276618294 12.79695032726366 33.144999999999996 
705 235 2 0.527 17.630882276618294 11.283049672736338 33.144999999999996 
706 236 1 -1.054 12.355 31.85 21.349999999999998 
707 236 2 0.527 12.940882276618295 32.60695032726366 21.349999999999998 
708 236 2 0.527 12.940882276618295 31.09304967273634 21.349999999999998 
709 237 1 -1.054 26.705000000000002 29.75 24.535 
710 237 2 0.527 27.290882276618298 30.506950327263663 24.535 
711 237 2 0.527 27.290882276618298 28.99304967273634 24.535 
712 238 1 -1.054 3.57 5.8100000000000005 19.285 
713 238 2 0.527 4.155882276618295 6.566950327263662 19.285 
714 238 2 0.527 4.155882276618295 5.053049672736339 19.285 
715 239 1 -1.054 0.21000000000000002 4.13 25.06 
716 239 2 0.527 0.7958822766182949 4.886950327263661 25.06 
717 239 2 0.527 0.7958822766182949 3.3730496727363386 25.06 
718 240 1 -1.054 21.63 11.340000000000002 5.845000000000001 
719 240 2 0.527 22.215882276618295 12.096950327263663 5.845000000000001 
720 240 2 0.527 22.215882276618295 10.58304967273634 5.845000000000001 
721 241 1 -1.054 3.955 7.454999999999999 3.71 
722 241 2 0.527 4.540882276618295 8.211950327263661 3.71 
723 241 2 0.527 4.540882276618295 6.698049672736338 3.71 
724 242 1 -1.054 32.83 0.42000000000000004 9.59 
725 242 2 0.527 33.4158822766183 1.1769503272636612 9.59 
726 242 2 0.527 33.4158822766183 -0.33695032726366114 9.59 
727 243 1 -1.054 13.825000000000001 16.52 6.124999999999999 
728 243 2 0.527 14.410882276618295 17.27695032726366 6.124999999999999 
729 243 2 0.527 14.410882276618295 15.763049672736338 6.124999999999999 
730 244 1 -1.054 4.41 14.28 24.849999999999998 
731 244 2 0.527 4.995882276618294 15.03695032726366 24.849999999999998 
732 244 2 0.527 4.995882276618294 13.523049672736338 24.849999999999998 
733 245 1 -1.054 32.410000000000004 11.094999999999999 34.44 
734 245 2 0.527 32.995882276618296 11.85195032726366 34.44 
735 245 2 0.527 32.995882276618296 10.338049672736338 34.44 
736 246 1 -1.054 1.435 12.285 31.044999999999998 
737 246 2 0.527 2.0208822766182952 13.04195032726366 31.044999999999998 
738 246 2 0.527 2.0208822766182952 11.528049672736337 31.044999999999998 
739 247 1 -1.054 23.555 9.520000000000001 31.080000000000002 
740 247 2 0.527 24.1408822766183 10.27695032726366 31.080000000000002 
741 247 2 0.527 24.1408822766183 8.76304967273634 31.080000000000002 
742 248 1 -1.054 16.1 3.71 27.58 
743 248 2 0.527 16.685882276618294 4.466950327263661 27.58 
744 248 2 0.527 16.685882276618294 2.9530496727363387 27.58 
745 249 1 -1.054 19.985 27.125 12.46 
746 249 2 0.527 20.570882276618295 27.88195032726366 12.46 
747 249 2 0.527 20.570882276618295 26.368049672736337 12.46 
748 250 1 -1.054 21.349999999999998 7.91 31.185000000000002 
749 250 2 0.527 21.935882276618294 8.666950327263661 31.185000000000002 
750 250 2 0.527 21.935882276618294 7.153049672736339 31.185000000000002 
751 251 1 -1.054 1.8900000000000001 22.05 31.185000000000002 
752 251 2 0.527 2.475882276618295 22.806950327263664 31.185000000000002 
753 251 2 0.527 2.475882276618295 21.293049672736338 31.185000000000002 
754 252 1 -1.054 22.189999999999998 13.09 24.779999999999998 
755 252 2 0.527 22.775882276618297 13.846950327263661 24.779999999999998 
756 252 2 0.527 22.775882276618297 12.333049672736339 24.779999999999998 
757 253 1 -1.054 29.19 33.17999999999999 10.709999999999999 
758 253 2 0.527 29.775882276618297 33.93695032726366 10.709999999999999 
759 253 2 0.527 29.775882276618297 32.42304967273633 10.709999999999999 
760 254 1 -1.054 21.419999999999998 16.765 23.31 
761 254 2 0.527 22.005882276618294 17.52195032726366 23.31 
762 254 2 0.527 22.005882276618294 16.008049672736337 23.31 
763 255 1 -1.054 11.165000000000001 19.32 29.259999999999998 
764 255 2 0.527 11.750882276618295 20.07695032726366 29.259999999999998 
765 255 2 0.527 11.750882276618295 18.56304967273634 29.259999999999998 
766 256 1 -1.054 17.15 17.85 6.720000000000001 
767 256 2 0.527 17.735882276618295 18.60695032726366 6.720000000000001 
768 256 2 0.527 17.735882276618295 17.093049672736342 6.720000000000001 
769 257 1 -1.054 9.66 30.695 30.310000000000002 
770 257 2 0.527 10.245882276618296 31.451950327263663 30.310000000000002 
771 257 2 0.527 10.245882276618296 29.93804967273634 30.310000000000002 
772 258 1 -1.054 34.79 34.965 14.7 
773 258 2 0.527 35.3758822766183 35.72195032726366 14.7 
774 258 2 0.527 35.3758822766183 34.20804967273634 14.7 
775 259 1 -1.054 35.0 3.6399999999999997 14.315 
776 259 2 0.527 35.5858822766183 4.396950327263661 14.315 
777 259 2 0.527 35.5858822766183 2.8830496727363384 14.315 
778 260 1 -1.054 19.565 32.795 16.135 
779 260 2 0.527 20.150882276618297 33.55195032726366 16.135 
780 260 2 0.527 20.150882276618297 32.03804967273634 16.135 
781 261 1 -1.054 23.66 30.765 34.44 
782 261 2 0.527 24.245882276618296 31.521950327263664 34.44 
783 261 2 0.527 24.245882276618296 30.00804967273634 34.44 
784 262 1 -1.054 11.585 16.1 26.775000000000002 
785 262 2 0.527 12.170882276618295 16.85695032726366 26.775000000000002 
786 262 2 0.527 12.170882276618295 15.34304967273634 26.775000000000002 
787 263 1 -1.054 9.485000000000001 13.055 1.575 
788 263 2 0.527 10.070882276618295 13.81195032726366 1.575 
789 263 2 0.527 10.070882276618295 12.298049672736337 1.575 
790 264 1 -1.054 15.715000000000002 12.249999999999998 25.585 
791 264 2 0.527 16.300882276618296 13.00695032726366 25.585 
792 264 2 0.527 16.300882276618296 11.493049672736337 25.585 
793 265 1 -1.054 16.52 22.47 15.68 
794 265 2 0.527 17.105882276618296 23.22695032726366 15.68 
795 265 2 0.527 17.105882276618296 21.71304967273634 15.68 
796 266 1 -1.054 18.2 1.6800000000000002 32.025 
797 266 2 0.527 18.785882276618295 2.436950327263661 32.025 
798 266 2 0.527 18.785882276618295 0.923049672736339 32.025 
799 267 1 -1.054 2.24 0.14 29.96 
800 267 2 0.527 2.825882276618295 0.8969503272636612 29.96 
801 267 2 0.527 2.825882276618295 -0.6169503272636612 29.96 
802 268 1 -1.054 31.465 2.6950000000000003 2.205 
803 268 2 0.527 32.050882276618296 3.4519503272636616 2.205 
804 268 2 0.527 32.050882276618296 1.938049672736339 2.205 
805 269 1 -1.054 10.254999999999999 20.964999999999996 24.57 
806 269 2 0.527 10.840882276618293 21.72195032726366 24.57 
807 269 2 0.527 10.840882276618293 20.208049672736337 24.57 
808 270 1 -1.054 14.384999999999998 22.365 21.0 
809 270 2 0.527 14.970882276618294 23.12195032726366 21.0 
810 270 2 0.527 14.970882276618294 21.60804967273634 21.0 
811 271 1 -1.054 29.819999999999997 20.16 2.66 
812 271 2 0.527 30.405882276618293 20.916950327263663 2.66 
813 271 2 0.527 30.405882276618293 19.403049672736337 2.66 
814 272 1 -1.054 27.58 14.595 1.8199999999999998 
815 272 2 0.527 28.165882276618298 15.351950327263662 1.8199999999999998 
816 272 2 0.527 28.165882276618298 13.83804967273634 1.8199999999999998 
817 273 1 -1.054 6.265 7.7700000000000005 28.35 
818 273 2 0.527 6.850882276618294 8.52695032726366 28.35 
819 273 2 0.527 6.850882276618294 7.013049672736339 28.35 
820 274 1 -1.054 24.394999999999996 21.63 34.16 
821 274 2 0.527 24.980882276618296 22.38695032726366 34.16 
822 274 2 0.527 24.980882276618296 20.873049672736336 34.16 
823 275 1 -1.054 0.805 10.885 10.920000000000002 
824 275 2 0.527 1.3908822766182949 11.641950327263661 10.920000000000002 
825 275 2 0.527 1.3908822766182949 10.128049672736338 10.920000000000002 
826 276 1 -1.054 9.73 6.23 33.425 
827 276 2 0.527 10.315882276618296 6.986950327263662 33.425 
828 276 2 0.527 10.315882276618296 5.473049672736339 33.425 
829 277 1 -1.054 5.25 22.54 21.314999999999998 
830 277 2 0.527 5.835882276618295 23.296950327263662 21.314999999999998 
831 277 2 0.527 5.835882276618295 21.78304967273634 21.314999999999998 
832 278 1 -1.054 29.224999999999998 15.049999999999999 12.95 
833 278 2 0.527 29.810882276618294 15.80695032726366 12.95 
834 278 2 0.527 29.810882276618294 14.293049672736338 12.95 
835 279 1 -1.054 30.659999999999997 28.874999999999996 7.35 
836 279 2 0.527 31.245882276618296 29.63195032726366 7.35 
837 279 2 0.527 31.245882276618296 28.118049672736337 7.35 
838 280 1 -1.054 30.905 19.425 20.299999999999997 
839 280 2 0.527 31.490882276618297 20.18195032726366 20.299999999999997 
840 280 2 0.527 31.490882276618297 18.66804967273634 20.299999999999997 
841 281 1 -1.054 20.054999999999996 25.41 21.455000000000002 
842 281 2 0.527 20.640882276618292 26.16695032726366 21.455000000000002 
843 281 2 0.527 20.640882276618292 24.653049672736337 21.455000000000002 
844 282 1 -1.054 16.695 6.3 12.214999999999998 
845 282 2 0.527 17.280882276618293 7.056950327263661 12.214999999999998 
846 282 2 0.527 17.280882276618293 5.5430496727363385 12.214999999999998 
847 283 1 -1.054 34.754999999999995 11.585 19.39 
848 283 2 0.527 35.340882276618295 12.341950327263662 19.39 
849 283 2 0.527 35.340882276618295 10.82804967273634 19.39 
850 284 1 -1.054 22.365 6.685 18.095000000000002 
851 284 2 0.527 22.950882276618294 7.441950327263661 18.095000000000002 
852 284 2 0.527 22.950882276618294 5.928049672736338 18.095000000000002 
853 285 1 -1.054 32.725 30.310000000000002 9.450000000000001 
854 285 2 0.527 33.310882276618294 31.066950327263662 9.450000000000001 
855 285 2 0.527 33.310882276618294 29.55304967273634 9.450000000000001 
856 286 1 -1.054 17.5 22.715 28.874999999999996 
857 286 2 0.527 18.085882276618296 23.471950327263663 28.874999999999996 
858 286 2 0.527 18.085882276618296 21.95804967273634 28.874999999999996 
859 287 1 -1.054 13.93 2.1 0.21000000000000002 
860 287 2 0.527 14.515882276618296 2.856950327263661 0.21000000000000002 
861 287 2 0.527 14.515882276618296 1.3430496727363388 0.21000000000000002 
862 288 1 -1.054 18.305 15.75 18.76 
863 288 2 0.527 18.890882276618296 16.50695032726366 18.76 
864 288 2 0.527 18.890882276618296 14.993049672736339 18.76 
865 289 1 -1.054 18.83 31.009999999999998 9.94 
866 289 2 0.527 19.415882276618294 31.76695032726366 9.94 
867 289 2 0.527 19.415882276618294 30.25304967273634 9.94 
868 290 1 -1.054 3.255 13.23 10.709999999999999 
869 290 2 0.527 3.840882276618295 13.98695032726366 10.709999999999999 
870 290 2 0.527 3.840882276618295 12.473049672736337 10.709999999999999 
871 291 1 -1.054 2.345 8.785 5.18 
872 291 2 0.527 2.930882276618295 9.541950327263661 5.18 
873 291 2 0.527 2.930882276618295 8.028049672736339 5.18 
874 292 1 -1.054 21.455000000000002 10.184999999999999 1.645 
875 292 2 0.527 22.040882276618298 10.941950327263662 1.645 
876 292 2 0.527 22.040882276618298 9.42804967273634 1.645 
877 293 1 -1.054 26.39 34.44 28.979999999999997 
878 293 2 0.527 26.9758822766183 35.196950327263664 28.979999999999997 
879 293 2 0.527 26.9758822766183 33.68304967273634 28.979999999999997 
880 294 1 -1.054 10.85 4.865 14.000000000000002 
881 294 2 0.527 11.435882276618294 5.6219503272636615 14.000000000000002 
882 294 2 0.527 11.435882276618294 4.108049672736339 14.000000000000002 
883 295 1 -1.054 7.945 18.025 8.82 
884 295 2 0.527 8.530882276618295 18.78195032726366 8.82 
885 295 2 0.527 8.530882276618295 17.26804967273634 8.82 
886 296 1 -1.054 32.585 30.73 3.815 
887 296 2 0.527 33.1708822766183 31.48695032726366 3.815 
888 296 2 0.527 33.1708822766183 29.973049672736337 3.815 
889 297 1 -1.054 13.614999999999998 29.015 3.955 
890 297 2 0.527 14.200882276618294 29.77195032726366 3.955 
891 297 2 0.527 14.200882276618294 28.258049672736337 3.955 
892 298 1 -1.054 0.245 7.84 14.489999999999998 
893 298 2 0.527 0.830882276618295 8.596950327263661 14.489999999999998 
894 298 2 0.527 0.830882276618295 7.083049672736339 14.489999999999998 
895 299 1 -1.054 3.29 25.724999999999998 4.0600000000000005 
896 299 2 0.527 3.8758822766182948 26.48195032726366 4.0600000000000005 
897 299 2 0.527 3.8758822766182948 24.968049672736335 4.0600000000000005 
898 300 1 -1.054 10.465 1.085 4.655 
899 300 2 0.527 11.050882276618294 1.8419503272636613 4.655 
900 300 2 0.527 11.050882276618294 0.32804967273633884 4.655 
901 301 1 -1.054 34.895 15.329999999999998 11.725000000000001 
902 301 2 0.527 35.480882276618296 16.08695032726366 11.725000000000001 
903 301 2 0.527 35.480882276618296 14.573049672736339 11.725000000000001 
904 302 1 -1.054 2.45 8.785 24.394999999999996 
905 302 2 0.527 3.0358822766182954 9.541950327263661 24.394999999999996 
906 302 2 0.527 3.0358822766182954 8.028049672736339 24.394999999999996 
907 303 1 -1.054 12.214999999999998 5.215 27.965 
908 303 2 0.527 12.800882276618292 5.971950327263661 27.965 
909 303 2 0.527 12.800882276618292 4.458049672736339 27.965 
910 304 1 -1.054 29.994999999999997 21.419999999999998 28.455 
911 304 2 0.527 30.580882276618297 22.17695032726366 28.455 
912 304 2 0.527 30.580882276618297 20.66304967273634 28.455 
913 305 1 -1.054 0.14 14.98 29.89 
914 305 2 0.527 0.725882276618295 15.736950327263662 29.89 
915 305 2 0.527 0.725882276618295 14.22304967273634 29.89 
916 306 1 -1.054 16.589999999999996 29.54 5.425 
917 306 2 0.527 17.175882276618292 30.29695032726366 5.425 
918 306 2 0.527 17.175882276618292 28.783049672736336 5.425 
919 307 1 -1.054 15.120000000000001 33.67 3.7800000000000002 
920 307 2 0.527 15.705882276618295 34.42695032726366 3.7800000000000002 
921 307 2 0.527 15.705882276618295 32.913049672736335 3.7800000000000002 
922 308 1 -1.054 3.3950000000000005 32.83 7.174999999999999 
923 308 2 0.527 3.9808822766182947 33.58695032726366 7.174999999999999 
924 308 2 0.527 3.9808822766182947 32.07304967273634 7.174999999999999 
925 309 1 -1.054 24.57 5.8100000000000005 5.670000000000001 
926 309 2 0.527 25.155882276618296 6.566950327263662 5.670000000000001 
927 309 2 0.527 25.155882276618296 5.053049672736339 5.670000000000001 
928 310 1 -1.054 25.025 13.23 27.650000000000002 
929 310 2 0.527 25.610882276618298 13.98695032726366 27.650000000000002 
930 310 2 0.527 25.610882276618298 12.473049672736337 27.650000000000002 
931 311 1 -1.054 25.97 16.1 11.06 
932 311 2 0.527 26.5558822766183 16.85695032726366 11.06 
933 311 2 0.527 26.5558822766183 15.34304967273634 11.06 
934 312 1 -1.054 33.915 19.005000000000003 0.63 
935 312 2 0.527 34.50088227661829 19.761950327263662 0.63 
936 312 2 0.527 34.50088227661829 18.24804967273634 0.63 
937 313 1 -1.054 33.285 31.395 20.755 
938 313 2 0.527 33.870882276618296 32.15195032726366 20.755 
939 313 2 0.527 33.870882276618296 30.638049672736337 20.755 
940 314 1 -1.054 18.935000000000002 4.7250000000000005 0.45499999999999996 
941 314 2 0.527 19.520882276618295 5.481950327263662 0.45499999999999996 
942 314 2 0.527 19.520882276618295 3.9680496727363392 0.45499999999999996 
943 315 1 -1.054 24.779999999999998 1.3650000000000002 20.964999999999996 
944 315 2 0.527 25.365882276618294 2.1219503272636615 20.964999999999996 
945 315 2 0.527 25.365882276618294 0.6080496727363389 20.964999999999996 
946 316 1 -1.054 25.9 30.310000000000002 17.99 
947 316 2 0.527 26.485882276618295 31.066950327263662 17.99 
948 316 2 0.527 26.485882276618295 29.55304967273634 17.99 
949 317 1 -1.054 11.795 27.125 16.73 
950 317 2 0.527 12.380882276618294 27.88195032726366 16.73 
951 317 2 0.527 12.380882276618294 26.368049672736337 16.73 
952 318 1 -1.054 15.575000000000001 16.415 31.57 
953 318 2 0.527 16.160882276618295 17.171950327263662 31.57 
954 318 2 0.527 16.160882276618295 15.658049672736338 31.57 
955 319 1 -1.054 21.244999999999997 9.1 24.57 
956 319 2 0.527 21.830882276618297 9.856950327263661 24.57 
957 319 2 0.527 21.830882276618297 8.343049672736338 24.57 
958 320 1 -1.054 31.745 24.815 6.334999999999999 
959 320 2 0.527 32.3308822766183 25.57195032726366 6.334999999999999 
960 320 2 0.527 32.3308822766183 24.058049672736338 6.334999999999999 
961 321 1 -1.054 23.905 23.485 22.89 
962 321 2 0.527 24.4908822766183 24.241950327263663 22.89 
963 321 2 0.527 24.4908822766183 22.72804967273634 22.89 
964 322 1 -1.054 0.35000000000000003 5.775 7.07 
965 322 2 0.527 0.935882276618295 6.531950327263662 7.07 
966 322 2 0.527 0.935882276618295 5.018049672736339 7.07 
967 323 1 -1.054 7.49 31.115 5.845000000000001 
968 323 2 0.527 8.075882276618294 31.87195032726366 5.845000000000001 
969 323 2 0.527 8.075882276618294 30.35804967273634 5.845000000000001 
970 324 1 -1.054 27.055000000000003 22.54 13.965 
971 324 2 0.527 27.6408822766183 23.296950327263662 13.965 
972 324 2 0.527 27.6408822766183 21.78304967273634 13.965 
973 325 1 -1.054 28.874999999999996 27.545 31.36 
974 325 2 0.527 29.460882276618293 28.30195032726366 31.36 
975 325 2 0.527 29.460882276618293 26.788049672736342 31.36 
976 326 1 -1.054 19.040000000000003 3.535 19.88 
977 326 2 0.527 19.625882276618295 4.291950327263661 19.88 
978 326 2 0.527 19.625882276618295 2.778049672736339 19.88 
979 327 1 -1.054 6.86 18.27 12.145 
980 327 2 0.527 7.4458822766182955 19.026950327263663 12.145 
981 327 2 0.527 7.4458822766182955 17.513049672736337 12.145 
982 328 1 -1.054 26.915 31.604999999999997 30.625 
983 328 2 0.527 27.5008822766183 32.361950327263656 30.625 
984 328 2 0.527 27.5008822766183 30.848049672736337 30.625 
985 329 1 -1.054 4.095000000000001 24.535 27.755000000000003 
986 329 2 0.527 4.680882276618295 25.291950327263663 27.755000000000003 
987 329 2 0.527 4.680882276618295 23.778049672736337 27.755000000000003 
988 330 1 -1.054 13.195 12.809999999999999 19.425 
989 330 2 0.527 13.780882276618296 13.56695032726366 19.425 
990 330 2 0.527 13.780882276618296 12.053049672736337 19.425 
991 331 1 -1.054 27.86 12.11 21.840000000000003 
992 331 2 0.527 28.4458822766183 12.866950327263659 21.840000000000003 
993 331 2 0.527 28.4458822766183 11.353049672736336 21.840000000000003 
994 332 1 -1.054 33.985 17.15 18.48 
995 332 2 0.527 34.57088227661829 17.906950327263658 18.48 
996 332 2 0.527 34.57088227661829 16.39304967273634 18.48 
997 333 1 -1.054 2.31 19.6 27.125 
998 333 2 0.527 2.8958822766182952 20.35695032726366 27.125 
999 333 2 0.527 2.8958822766182952 18.843049672736342 27.125 
1000 334 1 -1.054 23.240000000000002 5.635 26.284999999999997 
1001 334 2 0.527 23.8258822766183 6.391950327263661 26.284999999999997 
1002 334 2 0.527 23.8258822766183 4.8780496727363385 26.284999999999997 
1003 335 1 -1.054 9.94 9.205000000000002 30.905 
1004 335 2 0.527 10.525882276618294 9.961950327263661 30.905 
1005 335 2 0.527 10.525882276618294 8.448049672736339 30.905 
1006 336 1 -1.054 11.025 22.259999999999998 33.214999999999996 
1007 336 2 0.527 11.610882276618295 23.01695032726366 33.214999999999996 
1008 336 2 0.527 11.610882276618295 21.50304967273634 33.214999999999996 
1009 337 1 -1.054 33.074999999999996 31.675 27.685 
1010 337 2 0.527 33.660882276618295 32.431950327263664 27.685 
1011 337 2 0.527 33.660882276618295 30.918049672736338 27.685 
1012 338 1 -1.054 1.925 16.52 15.61 
1013 338 2 0.527 2.510882276618295 17.27695032726366 15.61 
1014 338 2 0.527 2.510882276618295 15.763049672736338 15.61 
1015 339 1 -1.054 28.525 17.5 20.545 
1016 339 2 0.527 29.110882276618298 18.25695032726366 20.545 
1017 339 2 0.527 29.110882276618298 16.74304967273634 20.545 
1018 340 1 -1.054 2.625 9.8 16.765 
1019 340 2 0.527 3.2108822766182947 10.55695032726366 16.765 
1020 340 2 0.527 3.2108822766182947 9.04304967273634 16.765 
1021 341 1 -1.054 28.105000000000004 7.875 21.840000000000003 
1022 341 2 0.527 28.6908822766183 8.631950327263661 21.840000000000003 
1023 341 2 0.527 28.6908822766183 7.118049672736339 21.840000000000003 
1024 342 1 -1.054 10.85 31.955 1.26 
1025 342 2 0.527 11.435882276618294 32.711950327263665 1.26 
1026 342 2 0.527 11.435882276618294 31.19804967273634 1.26 
1027 343 1 -1.054 4.760000000000001 6.86 32.83 
1028 343 2 0.527 5.345882276618296 7.616950327263662 32.83 
1029 343 2 0.527 5.345882276618296 6.103049672736339 32.83 
1030 344 1 -1.054 24.57 18.375 28.315 
1031 344 2 0.527 25.155882276618296 19.131950327263663 28.315 
1032 344 2 0.527 25.155882276618296 17.61804967273634 28.315 
1033 345 1 -1.054 5.915 31.85 12.74 
1034 345 2 0.527 6.500882276618295 32.60695032726366 12.74 
1035 345 2 0.527 6.500882276618295 31.09304967273634 12.74 
1036 346 1 -1.054 18.83 15.155000000000001 26.04 
1037 346 2 0.527 19.415882276618294 15.911950327263662 26.04 
1038 346 2 0.527 19.415882276618294 14.39804967273634 26.04 
1039 347 1 -1.054 6.720000000000001 14.629999999999999 10.22 
1040 347 2 0.527 7.305882276618295 15.38695032726366 10.22 
1041 347 2 0.527 7.305882276618295 13.873049672736338 10.22 
1042 348 1 -1.054 10.08 23.240000000000002 21.98 
1043 348 2 0.527 10.665882276618294 23.996950327263665 21.98 
1044 348 2 0.527 10.665882276618294 22.483049672736342 21.98 
1045 349 1 -1.054 9.975 27.475 5.880000000000001 
1046 349 2 0.527 10.560882276618296 28.23195032726366 5.880000000000001 
1047 349 2 0.527 10.560882276618296 26.71804967273634 5.880000000000001 
1048 350 1 -1.054 23.380000000000003 23.205 30.659999999999997 
1049 350 2 0.527 23.9658822766183 23.96195032726366 30.659999999999997 
1050 350 2 0.527 23.9658822766183 22.44804967273634 30.659999999999997 
1051 351 1 -1.054 0.21000000000000002 12.774999999999999 7.105 
1052 351 2 0.527 0.7958822766182949 13.53195032726366 7.105 
1053 351 2 0.527 0.7958822766182949 12.018049672736337 7.105 
1054 352 1 -1.054 17.15 3.815 14.489999999999998 
1055 352 2 0.527 17.735882276618295 4.571950327263662 14.489999999999998 
1056 352 2 0.527 17.735882276618295 3.0580496727363387 14.489999999999998 
1057 353 1 -1.054 18.935000000000002 20.964999999999996 21.595 
1058 353 2 0.527 19.520882276618295 21.72195032726366 21.595 
1059 353 2 0.527 19.520882276618295 20.208049672736337 21.595 
1060 354 1 -1.054 16.275000000000002 7.49 8.96 
1061 354 2 0.527 16.860882276618298 8.246950327263662 8.96 
1062 354 2 0.527 16.860882276618298 6.733049672736339 8.96 
1063 355 1 -1.054 7.63 0.665 5.3549999999999995 
1064 355 2 0.527 8.215882276618295 1.4219503272636613 5.3549999999999995 
1065 355 2 0.527 8.215882276618295 -0.09195032726366112 5.3549999999999995 
1066 356 1 -1.054 10.780000000000001 2.415 24.15 
1067 356 2 0.527 11.365882276618295 3.1719503272636613 24.15 
1068 356 2 0.527 11.365882276618295 1.6580496727363392 24.15 
1069 357 1 -1.054 32.305 19.705 11.27 
1070 357 2 0.527 32.8908822766183 20.46195032726366 11.27 
1071 357 2 0.527 32.8908822766183 18.94804967273634 11.27 
1072 358 1 -1.054 25.444999999999997 27.09 28.699999999999996 
1073 358 2 0.527 26.030882276618293 27.846950327263663 28.699999999999996 
1074 358 2 0.527 26.030882276618293 26.33304967273634 28.699999999999996 
1075 359 1 -1.054 32.69 22.330000000000002 7.98 
1076 359 2 0.527 33.2758822766183 23.08695032726366 7.98 
1077 359 2 0.527 33.2758822766183 21.57304967273634 7.98 
1078 360 1 -1.054 21.7 1.155 25.935000000000002 
1079 360 2 0.527 22.285882276618295 1.911950327263661 25.935000000000002 
1080 360 2 0.527 22.285882276618295 0.3980496727363389 25.935000000000002 
1081 361 1 -1.054 27.825000000000003 18.515 3.535 
1082 361 2 0.527 28.4108822766183 19.271950327263664 3.535 
1083 361 2 0.527 28.4108822766183 17.75804967273634 3.535 
1084 362 1 -1.054 34.58 8.785 23.835 
1085 362 2 0.527 35.1658822766183 9.541950327263661 23.835 
1086 362 2 0.527 35.1658822766183 8.028049672736339 23.835 
1087 363 1 -1.054 0.28 11.55 26.284999999999997 
1088 363 2 0.527 0.865882276618295 12.306950327263662 26.284999999999997 
1089 363 2 0.527 0.865882276618295 10.79304967273634 26.284999999999997 
1090 364 1 -1.054 33.46 10.780000000000001 22.54 
1091 364 2 0.527 34.0458822766183 11.536950327263662 22.54 
1092 364 2 0.527 34.0458822766183 10.02304967273634 22.54 
1093 365 1 -1.054 22.015 11.935 15.084999999999999 
1094 365 2 0.527 22.6008822766183 12.691950327263662 15.084999999999999 
1095 365 2 0.527 22.6008822766183 11.17804967273634 15.084999999999999 
1096 366 1 -1.054 16.485 33.53 10.534999999999998 
1097 366 2 0.527 17.070882276618292 34.28695032726366 10.534999999999998 
1098 366 2 0.527 17.070882276618292 32.773049672736335 10.534999999999998 
1099 367 1 -1.054 4.9 26.145 34.230000000000004 
1100 367 2 0.527 5.4858822766182955 26.901950327263663 34.230000000000004 
1101 367 2 0.527 5.4858822766182955 25.38804967273634 34.230000000000004 
1102 368 1 -1.054 30.765 27.195 4.165 
1103 368 2 0.527 31.3508822766183 27.95195032726366 4.165 
1104 368 2 0.527 31.3508822766183 26.43804967273634 4.165 
1105 369 1 -1.054 20.58 2.3800000000000003 2.1 
1106 369 2 0.527 21.165882276618294 3.136950327263661 2.1 
1107 369 2 0.527 21.165882276618294 1.623049672736339 2.1 
1108 370 1 -1.054 30.345 3.675 13.23 
1109 370 2 0.527 30.9308822766183 4.431950327263661 13.23 
1110 370 2 0.527 30.9308822766183 2.9180496727363385 13.23 
1111 371 1 -1.054 13.51 18.935000000000002 9.8 
1112 371 2 0.527 14.095882276618294 19.691950327263662 9.8 
1113 371 2 0.527 14.095882276618294 18.17804967273634 9.8 
1114 372 1 -1.054 8.75 19.6 22.225 
1115 372 2 0.527 9.335882276618294 20.35695032726366 22.225 
1116 372 2 0.527 9.335882276618294 18.843049672736342 22.225 
1117 373 1 -1.054 20.895000000000003 29.54 7.42 
1118 373 2 0.527 21.4808822766183 30.29695032726366 7.42 
1119 373 2 0.527 21.4808822766183 28.783049672736336 7.42 
1120 374 1 -1.054 9.24 1.4700000000000002 18.55 
1121 374 2 0.527 9.825882276618294 2.2269503272636615 18.55 
1122 374 2 0.527 9.825882276618294 0.713049672736339 18.55 
1123 375 1 -1.054 33.214999999999996 5.950000000000001 24.045 
1124 375 2 0.527 33.800882276618296 6.706950327263662 24.045 
1125 375 2 0.527 33.800882276618296 5.19304967273634 24.045 
1126 376 1 -1.054 12.04 33.845 9.450000000000001 
1127 376 2 0.527 12.625882276618295 34.601950327263665 9.450000000000001 
1128 376 2 0.527 12.625882276618295 33.08804967273634 9.450000000000001 
1129 377 1 -1.054 34.86 28.070000000000004 15.084999999999999 
1130 377 2 0.527 35.44588227661829 28.826950327263667 15.084999999999999 
1131 377 2 0.527 35.44588227661829 27.31304967273634 15.084999999999999 
1132 378 1 -1.054 14.175 15.120000000000001 11.025 
1133 378 2 0.527 14.760882276618295 15.87695032726366 11.025 
1134 378 2 0.527 14.760882276618295 14.363049672736338 11.025 
1135 379 1 -1.054 23.520000000000003 16.380000000000003 3.4650000000000003 
1136 379 2 0.527 24.1058822766183 17.136950327263662 3.4650000000000003 
1137 379 2 0.527 24.1058822766183 15.62304967273634 3.4650000000000003 
1138 380 1 -1.054 33.845 28.42 19.075000000000003 
1139 380 2 0.527 34.4308822766183 29.17695032726366 19.075000000000003 
1140 380 2 0.527 34.4308822766183 27.66304967273634 19.075000000000003 
1141 381 1 -1.054 10.709999999999999 29.575 21.14 
1142 381 2 0.527 11.295882276618293 30.331950327263662 21.14 
1143 381 2 0.527 11.295882276618293 28.81804967273634 21.14 
1144 382 1 -1.054 30.275 20.825 32.235 
1145 382 2 0.527 30.860882276618295 21.581950327263662 32.235 
1146 382 2 0.527 30.860882276618295 20.06804967273634 32.235 
1147 383 1 -1.054 33.565 0.7350000000000001 31.990000000000002 
1148 383 2 0.527 34.1508822766183 1.4919503272636614 31.990000000000002 
1149 383 2 0.527 34.1508822766183 -0.021950327263661057 31.990000000000002 
1150 384 1 -1.054 21.105 12.88 21.21 
1151 384 2 0.527 21.690882276618296 13.636950327263662 21.21 
1152 384 2 0.527 21.690882276618296 12.12304967273634 21.21 
1153 385 1 -1.054 21.490000000000002 15.26 30.625 
1154 385 2 0.527 22.075882276618298 16.01695032726366 30.625 
1155 385 2 0.527 22.075882276618298 14.503049672736338 30.625 
1156 386 1 -1.054 30.135 33.879999999999995 27.37 
1157 386 2 0.527 30.720882276618298 34.63695032726366 27.37 
1158 386 2 0.527 30.720882276618298 33.123049672736336 27.37 
1159 387 1 -1.054 29.259999999999998 23.485 18.935000000000002 
1160 387 2 0.527 29.845882276618294 24.241950327263663 18.935000000000002 
1161 387 2 0.527 29.845882276618294 22.72804967273634 18.935000000000002 
1162 388 1 -1.054 14.805 26.215000000000003 12.145 
1163 388 2 0.527 15.390882276618294 26.971950327263663 12.145 
1164 388 2 0.527 15.390882276618294 25.45804967273634 12.145 
1165 389 1 -1.054 15.015 27.02 30.099999999999998 
1166 389 2 0.527 15.600882276618295 27.776950327263663 30.099999999999998 
1167 389 2 0.527 15.600882276618295 26.263049672736337 30.099999999999998 
1168 390 1 -1.054 29.924999999999997 29.4 2.205 
1169 390 2 0.527 30.510882276618293 30.15695032726366 2.205 
1170 390 2 0.527 30.510882276618293 28.64304967273634 2.205 
1171 391 1 -1.054 25.794999999999998 0.245 24.15 
1172 391 2 0.527 26.380882276618294 1.0019503272636612 24.15 
1173 391 2 0.527 26.380882276618294 -0.5119503272636612 24.15 
1174 392 1 -1.054 21.314999999999998 27.09 3.29 
1175 392 2 0.527 21.900882276618297 27.846950327263663 3.29 
1176 392 2 0.527 21.900882276618297 26.33304967273634 3.29 
1177 393 1 -1.054 17.115000000000002 6.755 6.3 
1178 393 2 0.527 17.700882276618294 7.511950327263661 6.3 
1179 393 2 0.527 17.700882276618294 5.998049672736339 6.3 
1180 394 1 -1.054 33.67 28.070000000000004 21.595 
1181 394 2 0.527 34.255882276618294 28.826950327263667 21.595 
1182 394 2 0.527 34.255882276618294 27.31304967273634 21.595 
1183 395 1 -1.054 12.669999999999998 26.985 22.085 
1184 395 2 0.527 13.255882276618294 27.741950327263663 22.085 
1185 395 2 0.527 13.255882276618294 26.22804967273634 22.085 
1186 396 1 -1.054 16.485 19.985 18.795 
1187 396 2 0.527 17.070882276618292 20.74195032726366 18.795 
1188 396 2 0.527 17.070882276618292 19.22804967273634 18.795 
1189 397 1 -1.054 33.53 3.43 20.054999999999996 
1190 397 2 0.527 34.115882276618294 4.186950327263662 20.054999999999996 
1191 397 2 0.527 34.115882276618294 2.673049672736339 20.054999999999996 
1192 398 1 -1.054 16.380000000000003 29.714999999999996 22.54 
1193 398 2 0.527 16.965882276618295 30.47195032726366 22.54 
1194 398 2 0.527 16.965882276618295 28.958049672736337 22.54 
1195 399 1 -1.054 34.754999999999995 16.135 21.314999999999998 
1196 399 2 0.527 35.340882276618295 16.891950327263665 21.314999999999998 
1197 399 2 0.527 35.340882276618295 15.37804967273634 21.314999999999998 
1198 400 1 -1.054 32.095 13.93 4.795 
1199 400 2 0.527 32.6808822766183 14.686950327263661 4.795 
1200 400 2 0.527 32.6808822766183 13.173049672736338 4.795 
1201 401 1 -1.054 23.485 20.895000000000003 10.885 
1202 401 2 0.527 24.0708822766183 21.651950327263663 10.885 
1203 401 2 0.527 24.0708822766183 20.13804967273634 10.885 
1204 402 1 -1.054 9.520000000000001 16.765 1.155 
1205 402 2 0.527 10.105882276618296 17.52195032726366 1.155 
1206 402 2 0.527 10.105882276618296 16.008049672736337 1.155 
1207 403 1 -1.054 1.155 5.215 4.305 
1208 403 2 0.527 1.740882276618295 5.971950327263661 4.305 
1209 403 2 0.527 1.740882276618295 4.458049672736339 4.305 
1210 404 1 -1.054 29.924999999999997 9.38 4.34 
1211 404 2 0.527 30.510882276618293 10.13695032726366 4.34 
1212 404 2 0.527 30.510882276618293 8.62304967273634 4.34 
1213 405 1 -1.054 1.33 30.555 1.785 
1214 405 2 0.527 1.915882276618295 31.31195032726366 1.785 
1215 405 2 0.527 1.915882276618295 29.798049672736337 1.785 
1216 406 1 -1.054 19.425 0.77 25.095 
1217 406 2 0.527 20.010882276618297 1.526950327263661 25.095 
1218 406 2 0.527 20.010882276618297 0.013049672736338835 25.095 
1219 407 1 -1.054 33.285 14.735 23.415 
1220 407 2 0.527 33.870882276618296 15.491950327263663 23.415 
1221 407 2 0.527 33.870882276618296 13.97804967273634 23.415 
1222 408 1 -1.054 19.32 7.14 17.815 
1223 408 2 0.527 19.905882276618296 7.896950327263661 17.815 
1224 408 2 0.527 19.905882276618296 6.383049672736338 17.815 
1225 409 1 -1.054 3.3600000000000003 0.98 10.815 
1226 409 2 0.527 3.945882276618295 1.736950327263661 10.815 
1227 409 2 0.527 3.945882276618295 0.22304967273633888 10.815 
1228 410 1 -1.054 10.22 12.285 10.045 
1229 410 2 0.527 10.805882276618295 13.04195032726366 10.045 
1230 410 2 0.527 10.805882276618295 11.528049672736337 10.045 
1231 411 1 -1.054 12.915000000000001 34.125 26.32 
1232 411 2 0.527 13.500882276618295 34.88195032726366 26.32 
1233 411 2 0.527 13.500882276618295 33.36804967273634 26.32 
1234 412 1 -1.054 5.880000000000001 34.055 8.575 
1235 412 2 0.527 6.465882276618295 34.81195032726366 8.575 
1236 412 2 0.527 6.465882276618295 33.29804967273634 8.575 
1237 413 1 -1.054 10.674999999999999 15.295000000000002 6.51 
1238 413 2 0.527 11.260882276618293 16.05195032726366 6.51 
1239 413 2 0.527 11.260882276618293 14.538049672736339 6.51 
1240 414 1 -1.054 8.89 6.02 11.41 
1241 414 2 0.527 9.475882276618295 6.776950327263661 11.41 
1242 414 2 0.527 9.475882276618295 5.263049672736338 11.41 
1243 415 1 -1.054 12.635000000000002 11.83 11.690000000000001 
1244 415 2 0.527 13.220882276618296 12.586950327263661 11.690000000000001 
1245 415 2 0.527 13.220882276618296 11.073049672736339 11.690000000000001 
1246 416 1 -1.054 15.469999999999999 3.15 29.855 
1247 416 2 0.527 16.055882276618295 3.906950327263661 29.855 
1248 416 2 0.527 16.055882276618295 2.3930496727363386 29.855 
1249 417 1 -1.054 29.68 15.435 34.3 
1250 417 2 0.527 30.265882276618296 16.191950327263662 34.3 
1251 417 2 0.527 30.265882276618296 14.67804967273634 34.3 
1252 418 1 -1.054 7.84 18.445 26.25 
1253 418 2 0.527 8.425882276618296 19.20195032726366 26.25 
1254 418 2 0.527 8.425882276618296 17.68804967273634 26.25 
1255 419 1 -1.054 24.36 12.88 19.635 
1256 419 2 0.527 24.945882276618295 13.636950327263662 19.635 
1257 419 2 0.527 24.945882276618295 12.12304967273634 19.635 
1258 420 1 -1.054 10.114999999999998 1.085 15.645 
1259 420 2 0.527 10.700882276618293 1.8419503272636613 15.645 
1260 420 2 0.527 10.700882276618293 0.32804967273633884 15.645 
1261 421 1 -1.054 22.96 31.955 16.589999999999996 
1262 421 2 0.527 23.5458822766183 32.711950327263665 16.589999999999996 
1263 421 2 0.527 23.5458822766183 31.19804967273634 16.589999999999996 
1264 422 1 -1.054 22.75 7.5249999999999995 21.735 
1265 422 2 0.527 23.335882276618296 8.281950327263662 21.735 
1266 422 2 0.527 23.335882276618296 6.768049672736338 21.735 
1267 423 1 -1.054 24.955 29.68 3.3950000000000005 
1268 423 2 0.527 25.540882276618294 30.43695032726366 3.3950000000000005 
1269 423 2 0.527 25.540882276618294 28.92304967273634 3.3950000000000005 
1270 424 1 -1.054 15.365 27.02 32.515 
1271 424 2 0.527 15.950882276618294 27.776950327263663 32.515 
1272 424 2 0.527 15.950882276618294 26.263049672736337 32.515 
1273 425 1 -1.054 32.515 29.015 32.34 
1274 425 2 0.527 33.1008822766183 29.77195032726366 32.34 
1275 425 2 0.527 33.1008822766183 28.258049672736337 32.34 
1276 426 1 -1.054 27.685 15.4 27.405 
1277 426 2 0.527 28.270882276618295 16.15695032726366 27.405 
1278 426 2 0.527 28.270882276618295 14.643049672736339 27.405 
1279 427 1 -1.054 22.47 34.37 11.935 
1280 427 2 0.527 23.055882276618295 35.12695032726366 11.935 
1281 427 2 0.527 23.055882276618295 33.61304967273634 11.935 
1282 428 1 -1.054 26.880000000000003 22.61 19.74 
1283 428 2 0.527 27.4658822766183 23.366950327263663 19.74 
1284 428 2 0.527 27.4658822766183 21.85304967273634 19.74 
1285 429 1 -1.054 24.045 6.58 13.51 
1286 429 2 0.527 24.630882276618298 7.336950327263661 13.51 
1287 429 2 0.527 24.630882276618298 5.823049672736339 13.51 
1288 430 1 -1.054 10.045 4.795 6.02 
1289 430 2 0.527 10.630882276618294 5.551950327263661 6.02 
1290 430 2 0.527 10.630882276618294 4.038049672736339 6.02 
1291 431 1 -1.054 5.18 8.89 23.485 
1292 431 2 0.527 5.765882276618295 9.646950327263662 23.485 
1293 431 2 0.527 5.765882276618295 8.13304967273634 23.485 
1294 432 1 -1.054 16.17 23.03 10.43 
1295 432 2 0.527 16.755882276618294 23.78695032726366 10.43 
1296 432 2 0.527 16.755882276618294 22.273049672736338 10.43 
1297 433 1 -1.054 16.835 8.82 19.040000000000003 
1298 433 2 0.527 17.420882276618293 9.576950327263662 19.040000000000003 
1299 433 2 0.527 17.420882276618293 8.063049672736339 19.040000000000003 
1300 434 1 -1.054 30.485 10.149999999999999 27.09 
1301 434 2 0.527 31.070882276618295 10.90695032726366 27.09 
1302 434 2 0.527 31.070882276618295 9.393049672736337 27.09 
1303 435 1 -1.054 28.665 8.61 29.785 
1304 435 2 0.527 29.250882276618295 9.36695032726366 29.785 
1305 435 2 0.527 29.250882276618295 7.853049672736338 29.785 
1306 436 1 -1.054 24.884999999999998 14.455 34.93 
1307 436 2 0.527 25.470882276618294 15.211950327263661 34.93 
1308 436 2 0.527 25.470882276618294 13.698049672736339 34.93 
1309 437 1 -1.054 20.369999999999997 16.1 2.9750000000000005 
1310 437 2 0.527 20.955882276618297 16.85695032726366 2.9750000000000005 
1311 437 2 0.527 20.955882276618297 15.34304967273634 2.9750000000000005 
1312 438 1 -1.054 19.88 29.575 17.325 
1313 438 2 0.527 20.46588227661829 30.331950327263662 17.325 
1314 438 2 0.527 20.46588227661829 28.81804967273634 17.325 
1315 439 1 -1.054 25.095 10.36 22.189999999999998 
1316 439 2 0.527 25.6808822766183 11.116950327263663 22.189999999999998 
1317 439 2 0.527 25.6808822766183 9.60304967273634 22.189999999999998 
1318 440 1 -1.054 2.45 3.675 10.009999999999998 
1319 440 2 0.527 3.0358822766182954 4.431950327263661 10.009999999999998 
1320 440 2 0.527 3.0358822766182954 2.9180496727363385 10.009999999999998 
1321 441 1 -1.054 6.055 1.925 22.189999999999998 
1322 441 2 0.527 6.640882276618294 2.681950327263661 22.189999999999998 
1323 441 2 0.527 6.640882276618294 1.168049672736339 22.189999999999998 
1324 442 1 -1.054 14.14 19.215000000000003 27.229999999999997 
1325 442 2 0.527 14.725882276618297 19.971950327263663 27.229999999999997 
1326 442 2 0.527 14.725882276618297 18.45804967273634 27.229999999999997 
1327 443 1 -1.054 12.774999999999999 1.8199999999999998 2.8000000000000003 
1328 443 2 0.527 13.360882276618293 2.576950327263661 2.8000000000000003 
1329 443 2 0.527 13.360882276618293 1.0630496727363388 2.8000000000000003 
1330 444 1 -1.054 24.36 9.135 7.279999999999999 
1331 444 2 0.527 24.945882276618295 9.891950327263661 7.279999999999999 
1332 444 2 0.527 24.945882276618295 8.378049672736338 7.279999999999999 
1333 445 1 -1.054 6.23 27.685 19.6 
1334 445 2 0.527 6.815882276618295 28.441950327263662 19.6 
1335 445 2 0.527 6.815882276618295 26.92804967273634 19.6 
1336 446 1 -1.054 11.515 32.2 6.825 
1337 446 2 0.527 12.100882276618295 32.95695032726366 6.825 
1338 446 2 0.527 12.100882276618295 31.44304967273634 6.825 
1339 447 1 -1.054 26.775000000000002 11.025 15.645 
1340 447 2 0.527 27.360882276618298 11.781950327263662 15.645 
1341 447 2 0.527 27.360882276618298 10.268049672736339 15.645 
1342 448 1 -1.054 6.02 34.825 16.135 
1343 448 2 0.527 6.605882276618295 35.58195032726366 16.135 
1344 448 2 0.527 6.605882276618295 34.068049672736336 16.135 
1345 449 1 -1.054 2.52 12.95 4.34 
1346 449 2 0.527 3.1058822766182947 13.70695032726366 4.34 
1347 449 2 0.527 3.1058822766182947 12.193049672736338 4.34 
1348 450 1 -1.054 33.565 34.754999999999995 4.305 
1349 450 2 0.527 34.1508822766183 35.51195032726366 4.305 
1350 450 2 0.527 34.1508822766183 33.998049672736336 4.305 
1351 451 1 -1.054 32.760000000000005 18.970000000000002 6.23 
1352 451 2 0.527 33.3458822766183 19.726950327263665 6.23 
1353 451 2 0.527 33.3458822766183 18.21304967273634 6.23 
1354 452 1 -1.054 2.52 15.61 6.404999999999999 
1355 452 2 0.527 3.1058822766182947 16.36695032726366 6.404999999999999 
1356 452 2 0.527 3.1058822766182947 14.853049672736338 6.404999999999999 
1357 453 1 -1.054 21.63 4.9 14.14 
1358 453 2 0.527 22.215882276618295 5.656950327263662 14.14 
1359 453 2 0.527 22.215882276618295 4.143049672736339 14.14 
1360 454 1 -1.054 14.524999999999999 10.5 27.685 
1361 454 2 0.527 15.110882276618295 11.256950327263661 27.685 
1362 454 2 0.527 15.110882276618295 9.743049672736339 27.685 
1363 455 1 -1.054 14.28 28.21 10.114999999999998 
1364 455 2 0.527 14.865882276618294 28.966950327263664 10.114999999999998 
1365 455 2 0.527 14.865882276618294 27.45304967273634 10.114999999999998 
1366 456 1 -1.054 27.79 0.10500000000000001 4.69 
1367 456 2 0.527 28.375882276618295 0.861950327263661 4.69 
1368 456 2 0.527 28.375882276618295 -0.6519503272636612 4.69 
1369 457 1 -1.054 29.75 5.5649999999999995 31.465 
1370 457 2 0.527 30.3358822766183 6.321950327263661 31.465 
1371 457 2 0.527 30.3358822766183 4.808049672736338 31.465 
1372 458 1 -1.054 16.345 17.22 34.79 
1373 458 2 0.527 16.930882276618295 17.976950327263662 34.79 
1374 458 2 0.527 16.930882276618295 16.46304967273634 34.79 
1375 459 1 -1.054 22.75 10.22 18.76 
1376 459 2 0.527 23.335882276618296 10.976950327263662 18.76 
1377 459 2 0.527 23.335882276618296 9.46304967273634 18.76 
1378 460 1 -1.054 20.09 15.855 7.595 
1379 460 2 0.527 20.675882276618296 16.611950327263663 7.595 
1380 460 2 0.527 20.675882276618296 15.098049672736341 7.595 
1381 461 1 -1.054 15.785 20.895000000000003 13.51 
1382 461 2 0.527 16.370882276618296 21.651950327263663 13.51 
1383 461 2 0.527 16.370882276618296 20.13804967273634 13.51 
1384 462 1 -1.054 5.25 18.095000000000002 22.365 
1385 462 2 0.527 5.835882276618295 18.851950327263662 22.365 
1386 462 2 0.527 5.835882276618295 17.33804967273634 22.365 
1387 463 1 -1.054 0.7000000000000001 21.244999999999997 16.1 
1388 463 2 0.527 1.2858822766182951 22.00195032726366 16.1 
1389 463 2 0.527 1.2858822766182951 20.488049672736338 16.1 
1390 464 1 -1.054 26.634999999999998 19.74 24.815 
1391 464 2 0.527 27.220882276618298 20.496950327263658 24.815 
1392 464 2 0.527 27.220882276618298 18.983049672736335 24.815 
1393 465 1 -1.054 23.59 17.92 9.765 
1394 465 2 0.527 24.175882276618296 18.67695032726366 9.765 
1395 465 2 0.527 24.175882276618296 17.16304967273634 9.765 
1396 466 1 -1.054 15.049999999999999 22.575000000000003 31.815 
1397 466 2 0.527 15.635882276618293 23.331950327263662 31.815 
1398 466 2 0.527 15.635882276618293 21.818049672736343 31.815 
1399 467 1 -1.054 3.815 29.505 24.815 
1400 467 2 0.527 4.400882276618295 30.261950327263662 24.815 
1401 467 2 0.527 4.400882276618295 28.748049672736336 24.815 
1402 468 1 -1.054 25.13 18.235 0.21000000000000002 
1403 468 2 0.527 25.715882276618295 18.991950327263663 0.21000000000000002 
1404 468 2 0.527 25.715882276618295 17.47804967273634 0.21000000000000002 
1405 469 1 -1.054 28.525 9.59 19.075000000000003 
1406 469 2 0.527 29.110882276618298 10.346950327263663 19.075000000000003 
1407 469 2 0.527 29.110882276618298 8.83304967273634 19.075000000000003 
1408 470 1 -1.054 23.345000000000002 4.55 11.06 
1409 470 2 0.527 23.9308822766183 5.306950327263661 11.06 
1410 470 2 0.527 23.9308822766183 3.793049672736339 11.06 
1411 471 1 -1.054 28.42 15.645 31.885000000000005 
1412 471 2 0.527 29.005882276618298 16.401950327263663 31.885000000000005 
1413 471 2 0.527 29.005882276618298 14.888049672736338 31.885000000000005 
1414 472 1 -1.054 21.98 1.7500000000000002 13.614999999999998 
1415 472 2 0.527 22.565882276618296 2.5069503272636613 13.614999999999998 
1416 472 2 0.527 22.565882276618296 0.993049672736339 13.614999999999998 
1417 473 1 -1.054 2.485 5.25 22.925 
1418 473 2 0.527 3.0708822766182946 6.006950327263661 22.925 
1419 473 2 0.527 3.0708822766182946 4.493049672736339 22.925 
1420 474 1 -1.054 33.17999999999999 11.83 24.779999999999998 
1421 474 2 0.527 33.76588227661829 12.586950327263661 24.779999999999998 
1422 474 2 0.527 33.76588227661829 11.073049672736339 24.779999999999998 
1423 475 1 -1.054 12.88 33.775 17.08 
1424 475 2 0.527 13.465882276618295 34.53195032726366 17.08 
1425 475 2 0.527 13.465882276618295 33.01804967273634 17.08 
1426 476 1 -1.054 6.86 23.03 17.955000000000002 
1427 476 2 0.527 7.4458822766182955 23.78695032726366 17.955000000000002 
1428 476 2 0.527 7.4458822766182955 22.273049672736338 17.955000000000002 
1429 477 1 -1.054 12.285 30.939999999999998 32.2 
1430 477 2 0.527 12.870882276618294 31.69695032726366 32.2 
1431 477 2 0.527 12.870882276618294 30.183049672736338 32.2 
1432 478 1 -1.054 28.14 10.114999999999998 10.36 
1433 478 2 0.527 28.725882276618297 10.87195032726366 10.36 
1434 478 2 0.527 28.725882276618297 9.358049672736337 10.36 
1435 479 1 -1.054 0.42000000000000004 17.71 4.165 
1436 479 2 0.527 1.0058822766182949 18.46695032726366 4.165 
1437 479 2 0.527 1.0058822766182949 16.953049672736338 4.165 
1438 480 1 -1.054 12.424999999999999 1.0150000000000001 21.840000000000003 
1439 480 2 0.527 13.010882276618293 1.771950327263661 21.840000000000003 
1440 480 2 0.527 13.010882276618293 0.25804967273633894 21.840000000000003 
1441 481 1 -1.054 14.595 6.3 10.745000000000001 
1442 481 2 0.527 15.180882276618295 7.056950327263661 10.745000000000001 
1443 481 2 0.527 15.180882276618295 5.5430496727363385 10.745000000000001 
1444 482 1 -1.054 8.925 7.5600000000000005 6.3 
1445 482 2 0.527 9.510882276618295 8.316950327263662 6.3 
1446 482 2 0.527 9.510882276618295 6.803049672736339 6.3 
1447 483 1 -1.054 11.935 0.42000000000000004 33.355 
1448 483 2 0.527 12.520882276618295 1.1769503272636612 33.355 
1449 483 2 0.527 12.520882276618295 -0.33695032726366114 33.355 
1450 484 1 -1.054 1.26 10.465 0.21000000000000002 
1451 484 2 0.527 1.845882276618295 11.221950327263661 0.21000000000000002 
1452 484 2 0.527 1.845882276618295 9.708049672736339 0.21000000000000002 
1453 485 1 -1.054 21.525 11.340000000000002 32.480000000000004 
1454 485 2 0.527 22.110882276618295 12.096950327263663 32.480000000000004 
1455 485 2 0.527 22.110882276618295 10.58304967273634 32.480000000000004 
1456 486 1 -1.054 8.68 31.115 20.755 
1457 486 2 0.527 9.265882276618294 31.87195032726366 20.755 
1458 486 2 0.527 9.265882276618294 30.35804967273634 20.755 
1459 487 1 -1.054 14.175 18.2 21.665 
1460 487 2 0.527 14.760882276618295 18.956950327263662 21.665 
1461 487 2 0.527 14.760882276618295 17.44304967273634 21.665 
1462 488 1 -1.054 10.954999999999998 12.53 34.230000000000004 
1463 488 2 0.527 11.540882276618294 13.28695032726366 34.230000000000004 
1464 488 2 0.527 11.540882276618294 11.773049672736338 34.230000000000004 
1465 489 1 -1.054 3.955 21.735 11.655 
1466 489 2 0.527 4.540882276618295 22.49195032726366 11.655 
1467 489 2 0.527 4.540882276618295 20.978049672736336 11.655 
1468 490 1 -1.054 1.155 33.39 0.035 
1469 490 2 0.527 1.740882276618295 34.14695032726366 0.035 
1470 490 2 0.527 1.740882276618295 32.63304967273634 0.035 
1471 491 1 -1.054 6.930000000000001 13.125 22.015 
1472 491 2 0.527 7.515882276618296 13.881950327263661 22.015 
1473 491 2 0.527 7.515882276618296 12.368049672736339 22.015 
1474 492 1 -1.054 3.01 33.285 12.6 
1475 492 2 0.527 3.5958822766182945 34.04195032726366 12.6 
1476 492 2 0.527 3.5958822766182945 32.52804967273634 12.6 
1477 493 1 -1.054 18.83 30.38 20.65 
1478 493 2 0.527 19.415882276618294 31.13695032726366 20.65 
1479 493 2 0.527 19.415882276618294 29.623049672736336 20.65 
1480 494 1 -1.054 13.055 7.105 30.275 
1481 494 2 0.527 13.640882276618294 7.861950327263662 30.275 
1482 494 2 0.527 13.640882276618294 6.348049672736339 30.275 
1483 495 1 -1.054 5.32 33.739999999999995 29.994999999999997 
1484 495 2 0.527 5.905882276618295 34.49695032726366 29.994999999999997 
1485 495 2 0.527 5.905882276618295 32.983049672736335 29.994999999999997 
1486 496 1 -1.054 12.145 18.62 17.884999999999998 
1487 496 2 0.527 12.730882276618294 19.376950327263664 17.884999999999998 
1488 496 2 0.527 12.730882276618294 17.863049672736338 17.884999999999998 
1489 497 1 -1.054 5.5649999999999995 30.939999999999998 9.1 
1490 497 2 0.527 6.150882276618295 31.69695032726366 9.1 
1491 497 2 0.527 6.150882276618295 30.183049672736338 9.1 
1492 498 1 -1.054 27.895000000000003 22.680000000000003 30.52 
1493 498 2 0.527 28.4808822766183 23.436950327263663 30.52 
1494 498 2 0.527 28.4808822766183 21.92304967273634 30.52 
1495 499 1 -1.054 16.8 20.44 34.125 
1496 499 2 0.527 17.385882276618293 21.19695032726366 34.125 
1497 499 2 0.527 17.385882276618293 19.683049672736338 34.125 
1498 500 1 -1.054 0.14 24.955 8.75 
1499 500 2 0.527 0.725882276618295 25.711950327263658 8.75 
1500 500 2 0.527 0.725882276618295 24.19804967273634 8.75 
1501 501 1 -1.054 2.555 31.080000000000002 18.27 
1502 501 2 0.527 3.140882276618295 31.83695032726366 18.27 
1503 501 2 0.527 3.140882276618295 30.32304967273634 18.27 
1504 502 1 -1.054 19.915 20.509999999999998 3.955 
1505 502 2 0.527 20.500882276618295 21.266950327263658 3.955 
1506 502 2 0.527 20.500882276618295 19.753049672736335 3.955 
1507 503 1 -1.054 34.58 7.105 3.605 
1508 503 2 0.527 35.1658822766183 7.861950327263662 3.605 
1509 503 2 0.527 35.1658822766183 6.348049672736339 3.605 
1510 504 1 -1.054 2.52 23.87 20.72 
1511 504 2 0.527 3.1058822766182947 24.62695032726366 20.72 
1512 504 2 0.527 3.1058822766182947 23.113049672736338 20.72 
1513 505 1 -1.054 7.174999999999999 28.21 27.125 
1514 505 2 0.527 7.760882276618294 28.966950327263664 27.125 
1515 505 2 0.527 7.760882276618294 27.45304967273634 27.125 
1516 506 1 -1.054 11.41 5.25 19.46 
1517 506 2 0.527 11.995882276618294 6.006950327263661 19.46 
1518 506 2 0.527 11.995882276618294 4.493049672736339 19.46 
1519 507 1 -1.054 14.84 6.404999999999999 2.9750000000000005 
1520 507 2 0.527 15.425882276618294 7.161950327263661 2.9750000000000005 
1521 507 2 0.527 15.425882276618294 5.648049672736338 2.9750000000000005 
1522 508 1 -1.054 23.240000000000002 15.365 20.404999999999998 
1523 508 2 0.527 23.8258822766183 16.12195032726366 20.404999999999998 
1524 508 2 0.527 23.8258822766183 14.608049672736339 20.404999999999998 
1525 509 1 -1.054 24.465 32.025 31.990000000000002 
1526 509 2 0.527 25.050882276618296 32.781950327263665 31.990000000000002 
1527 509 2 0.527 25.050882276618296 31.26804967273634 31.990000000000002 
1528 510 1 -1.054 19.53 15.084999999999999 23.695000000000004 
1529 510 2 0.527 20.1158822766183 15.84195032726366 23.695000000000004 
1530 510 2 0.527 20.1158822766183 14.328049672736338 23.695000000000004 
1531 511 1 -1.054 16.345 9.24 30.064999999999998 
1532 511 2 0.527 16.930882276618295 9.996950327263662 30.064999999999998 
1533 511 2 0.527 16.930882276618295 8.483049672736339 30.064999999999998 
1534 512 1 -1.054 15.96 32.165 6.334999999999999 
1535 512 2 0.527 16.545882276618297 32.92195032726366 6.334999999999999 
1536 512 2 0.527 16.545882276618297 31.40804967273634 6.334999999999999 
1537 513 1 -1.054 30.135 9.66 0.385 
1538 513 2 0.527 30.720882276618298 10.416950327263661 0.385 
1539 513 2 0.527 30.720882276618298 8.903049672736339 0.385 
1540 514 1 -1.054 23.94 28.035 24.92 
1541 514 2 0.527 24.525882276618297 28.791950327263663 24.92 
1542 514 2 0.527 24.525882276618297 27.27804967273634 24.92 
1543 515 1 -1.054 16.415 33.95 20.685 
1544 515 2 0.527 17.000882276618295 34.70695032726366 20.685 
1545 515 2 0.527 17.000882276618295 33.193049672736336 20.685 
1546 516 1 -1.054 30.169999999999998 24.815 1.4000000000000001 
1547 516 2 0.527 30.755882276618294 25.57195032726366 1.4000000000000001 
1548 516 2 0.527 30.755882276618294 24.058049672736338 1.4000000000000001 
1549 517 1 -1.054 23.94 28.804999999999996 13.055 
1550 517 2 0.527 24.525882276618297 29.56195032726366 13.055 
1551 517 2 0.527 24.525882276618297 28.048049672736333 13.055 
1552 518 1 -1.054 7.35 18.305 31.29 
1553 518 2 0.527 7.935882276618295 19.061950327263663 31.29 
1554 518 2 0.527 7.935882276618295 17.54804967273634 31.29 
1555 519 1 -1.054 3.255 0.665 4.095000000000001 
1556 519 2 0.527 3.840882276618295 1.4219503272636613 4.095000000000001 
1557 519 2 0.527 3.840882276618295 -0.09195032726366112 4.095000000000001 
1558 520 1 -1.054 27.09 19.845 32.235 
1559 520 2 0.527 27.675882276618296 20.60195032726366 32.235 
1560 520 2 0.527 27.675882276618296 19.088049672736336 32.235 
1561 521 1 -1.054 32.864999999999995 25.2 17.255 
1562 521 2 0.527 33.450882276618294 25.956950327263662 17.255 
1563 521 2 0.527 33.450882276618294 24.44304967273634 17.255 
1564 522 1 -1.054 29.855 7.5600000000000005 11.620000000000001 
1565 522 2 0.527 30.440882276618296 8.316950327263662 11.620000000000001 
1566 522 2 0.527 30.440882276618296 6.803049672736339 11.620000000000001 
1567 523 1 -1.054 24.29 6.02 30.8 
1568 523 2 0.527 24.875882276618295 6.776950327263661 30.8 
1569 523 2 0.527 24.875882276618295 5.263049672736338 30.8 
1570 524 1 -1.054 27.86 3.22 25.935000000000002 
1571 524 2 0.527 28.4458822766183 3.9769503272636615 25.935000000000002 
1572 524 2 0.527 28.4458822766183 2.463049672736339 25.935000000000002 
1573 525 1 -1.054 9.975 33.17999999999999 23.17 
1574 525 2 0.527 10.560882276618296 33.93695032726366 23.17 
1575 525 2 0.527 10.560882276618296 32.42304967273633 23.17 
1576 526 1 -1.054 7.5249999999999995 9.94 13.965 
1577 526 2 0.527 8.110882276618295 10.696950327263659 13.965 
1578 526 2 0.527 8.110882276618295 9.183049672736338 13.965 
1579 527 1 -1.054 25.095 26.32 4.2 
1580 527 2 0.527 25.6808822766183 27.076950327263663 4.2 
1581 527 2 0.527 25.6808822766183 25.56304967273634 4.2 
1582 528 1 -1.054 8.96 0.7000000000000001 33.32 
1583 528 2 0.527 9.545882276618295 1.4569503272636615 33.32 
1584 528 2 0.527 9.545882276618295 -0.05695032726366109 33.32 
1585 529 1 -1.054 28.035 33.285 12.915000000000001 
1586 529 2 0.527 28.620882276618296 34.04195032726366 12.915000000000001 
1587 529 2 0.527 28.620882276618296 32.52804967273634 12.915000000000001 
1588 530 1 -1.054 26.32 15.575000000000001 19.145 
1589 530 2 0.527 26.9058822766183 16.331950327263662 19.145 
1590 530 2 0.527 26.9058822766183 14.81804967273634 19.145 
1591 531 1 -1.054 3.4650000000000003 33.6 33.425 
1592 531 2 0.527 4.050882276618295 34.35695032726366 33.425 
1593 531 2 0.527 4.050882276618295 32.843049672736335 33.425 
1594 532 1 -1.054 6.51 19.565 6.475 
1595 532 2 0.527 7.095882276618295 20.321950327263664 6.475 
1596 532 2 0.527 7.095882276618295 18.808049672736338 6.475 
1597 533 1 -1.054 12.46 9.030000000000001 26.915 
1598 533 2 0.527 13.045882276618295 9.78695032726366 26.915 
1599 533 2 0.527 13.045882276618295 8.273049672736338 26.915 
1600 534 1 -1.054 10.605 13.545 28.455 
1601 534 2 0.527 11.190882276618295 14.301950327263661 28.455 
1602 534 2 0.527 11.190882276618295 12.788049672736339 28.455 
1603 535 1 -1.054 14.77 8.434999999999999 12.88 
1604 535 2 0.527 15.355882276618294 9.19195032726366 12.88 
1605 535 2 0.527 15.355882276618294 7.678049672736337 12.88 
1606 536 1 -1.054 33.635 18.27 25.375 
1607 536 2 0.527 34.2208822766183 19.026950327263663 25.375 
1608 536 2 0.527 34.2208822766183 17.513049672736337 25.375 
1609 537 1 -1.054 17.745 15.96 10.465 
1610 537 2 0.527 18.330882276618294 16.71695032726366 10.465 
1611 537 2 0.527 18.330882276618294 15.20304967273634 10.465 
1612 538 1 -1.054 22.54 19.040000000000003 1.96 
1613 538 2 0.527 23.1258822766183 19.796950327263662 1.96 
1614 538 2 0.527 23.1258822766183 18.28304967273634 1.96 
1615 539 1 -1.054 13.055 29.295 24.08 
1616 539 2 0.527 13.640882276618294 30.05195032726366 24.08 
1617 539 2 0.527 13.640882276618294 28.53804967273634 24.08 
1618 540 1 -1.054 22.225 31.604999999999997 3.815 
1619 540 2 0.527 22.810882276618297 32.361950327263656 3.815 
1620 540 2 0.527 22.810882276618297 30.848049672736337 3.815 
1621 541 1 -1.054 12.46 19.67 14.84 
1622 541 2 0.527 13.045882276618295 20.42695032726366 14.84 
1623 541 2 0.527 13.045882276618295 18.91304967273634 14.84 
1624 542 1 -1.054 5.915 22.294999999999998 4.445 
1625 542 2 0.527 6.500882276618295 23.05195032726366 4.445 
1626 542 2 0.527 6.500882276618295 21.538049672736335 4.445 
1627 543 1 -1.054 21.21 20.404999999999998 16.765 
1628 543 2 0.527 21.795882276618297 21.16195032726366 16.765 
1629 543 2 0.527 21.795882276618297 19.648049672736335 16.765 
1630 544 1 -1.054 14.875 9.905 10.395 
1631 544 2 0.527 15.460882276618296 10.66195032726366 10.395 
1632 544 2 0.527 15.460882276618296 9.148049672736338 10.395 
1633 545 1 -1.054 14.384999999999998 14.07 13.580000000000002 
1634 545 2 0.527 14.970882276618294 14.826950327263662 13.580000000000002 
1635 545 2 0.527 14.970882276618294 13.313049672736339 13.580000000000002 
1636 546 1 -1.054 26.564999999999998 25.689999999999998 32.69 
1637 546 2 0.527 27.150882276618297 26.44695032726366 32.69 
1638 546 2 0.527 27.150882276618297 24.933049672736338 32.69 
1639 547 1 -1.054 7.07 2.17 27.055000000000003 
1640 547 2 0.527 7.6558822766182955 2.9269503272636612 27.055000000000003 
1641 547 2 0.527 7.6558822766182955 1.413049672736339 27.055000000000003 
1642 548 1 -1.054 24.604999999999997 27.545 7.734999999999999 
1643 548 2 0.527 25.190882276618293 28.30195032726366 7.734999999999999 
1644 548 2 0.527 25.190882276618293 26.788049672736342 7.734999999999999 
1645 549 1 -1.054 21.735 31.150000000000002 23.485 
1646 549 2 0.527 22.320882276618295 31.906950327263665 23.485 
1647 549 2 0.527 22.320882276618295 30.39304967273634 23.485 
1648 550 1 -1.054 6.790000000000001 6.055 6.545 
1649 550 2 0.527 7.375882276618295 6.811950327263661 6.545 
1650 550 2 0.527 7.375882276618295 5.298049672736338 6.545 
1651 551 1 -1.054 32.62 15.015 17.85 
1652 551 2 0.527 33.2058822766183 15.771950327263662 17.85 
1653 551 2 0.527 33.2058822766183 14.25804967273634 17.85 
1654 552 1 -1.054 6.545 12.88 30.695 
1655 552 2 0.527 7.130882276618294 13.636950327263662 30.695 
1656 552 2 0.527 7.130882276618294 12.12304967273634 30.695 
1657 553 1 -1.054 3.29 1.8900000000000001 33.39 
1658 553 2 0.527 3.8758822766182948 2.6469503272636614 33.39 
1659 553 2 0.527 3.8758822766182948 1.1330496727363388 33.39 
1660 554 1 -1.054 1.4700000000000002 4.585 31.675 
1661 554 2 0.527 2.0558822766182954 5.341950327263661 31.675 
1662 554 2 0.527 2.0558822766182954 3.8280496727363387 31.675 
1663 555 1 -1.054 27.510000000000005 17.395 14.28 
1664 555 2 0.527 28.0958822766183 18.151950327263663 14.28 
1665 555 2 0.527 28.0958822766183 16.63804967273634 14.28 
1666 556 1 -1.054 22.12 12.424999999999999 8.575 
1667 556 2 0.527 22.705882276618297 13.18195032726366 8.575 
1668 556 2 0.527 22.705882276618297 11.668049672736338 8.575 
1669 557 1 -1.054 4.34 4.935 6.965 
1670 557 2 0.527 4.925882276618295 5.691950327263661 6.965 
1671 557 2 0.527 4.925882276618295 4.178049672736338 6.965 
1672 558 1 -1.054 4.83 11.795 34.37 
1673 558 2 0.527 5.415882276618296 12.551950327263661 34.37 
1674 558 2 0.527 5.415882276618296 11.038049672736339 34.37 
1675 559 1 -1.054 15.120000000000001 19.32 32.585 
1676 559 2 0.527 15.705882276618295 20.07695032726366 32.585 
1677 559 2 0.527 15.705882276618295 18.56304967273634 32.585 
1678 560 1 -1.054 9.31 24.22 28.21 
1679 560 2 0.527 9.895882276618295 24.97695032726366 28.21 
1680 560 2 0.527 9.895882276618295 23.463049672736336 28.21 
1681 561 1 -1.054 23.205 20.229999999999997 29.4 
1682 561 2 0.527 23.790882276618298 20.986950327263656 29.4 
1683 561 2 0.527 23.790882276618298 19.473049672736337 29.4 
1684 562 1 -1.054 27.58 19.53 28.525 
1685 562 2 0.527 28.165882276618298 20.286950327263664 28.525 
1686 562 2 0.527 28.165882276618298 18.77304967273634 28.525 
1687 563 1 -1.054 10.674999999999999 19.845 19.95 
1688 563 2 0.527 11.260882276618293 20.60195032726366 19.95 
1689 563 2 0.527 11.260882276618293 19.088049672736336 19.95 
1690 564 1 -1.054 5.705 27.510000000000005 2.485 
1691 564 2 0.527 6.290882276618294 28.266950327263665 2.485 
1692 564 2 0.527 6.290882276618294 26.753049672736342 2.485 
1693 565 1 -1.054 3.675 33.495 24.22 
1694 565 2 0.527 4.260882276618295 34.25195032726366 24.22 
1695 565 2 0.527 4.260882276618295 32.73804967273634 24.22 
1696 566 1 -1.054 34.195 28.42 29.19 
1697 566 2 0.527 34.78088227661829 29.17695032726366 29.19 
1698 566 2 0.527 34.78088227661829 27.66304967273634 29.19 
1699 567 1 -1.054 6.51 5.8100000000000005 11.795 
1700 567 2 0.527 7.095882276618295 6.566950327263662 11.795 
1701 567 2 0.527 7.095882276618295 5.053049672736339 11.795 
1702 568 1 -1.054 10.885 23.835 10.709999999999999 
1703 568 2 0.527 11.470882276618294 24.591950327263664 10.709999999999999 
1704 568 2 0.527 11.470882276618294 23.07804967273634 10.709999999999999 
1705 569 1 -1.054 1.6800000000000002 20.58 7.84 
1706 569 2 0.527 2.265882276618295 21.336950327263658 7.84 
1707 569 2 0.527 2.265882276618295 19.82304967273634 7.84 
1708 570 1 -1.054 19.565 11.655 30.555 
1709 570 2 0.527 20.150882276618297 12.41195032726366 30.555 
1710 570 2 0.527 20.150882276618297 10.898049672736338 30.555 
1711 571 1 -1.054 9.520000000000001 21.069999999999997 10.99 
1712 571 2 0.527 10.105882276618296 21.82695032726366 10.99 
1713 571 2 0.527 10.105882276618296 20.313049672736337 10.99 
1714 572 1 -1.054 18.130000000000003 12.669999999999998 7.3149999999999995 
1715 572 2 0.527 18.715882276618295 13.426950327263661 7.3149999999999995 
1716 572 2 0.527 18.715882276618295 11.913049672736339 7.3149999999999995 
1717 573 1 -1.054 25.235 9.695 33.635 
1718 573 2 0.527 25.820882276618295 10.451950327263662 33.635 
1719 573 2 0.527 25.820882276618295 8.938049672736339 33.635 
1720 574 1 -1.054 15.68 24.324999999999996 8.120000000000001 
1721 574 2 0.527 16.265882276618296 25.08195032726366 8.120000000000001 
1722 574 2 0.527 16.265882276618296 23.568049672736336 8.120000000000001 
1723 575 1 -1.054 31.675 33.775 1.33 
1724 575 2 0.527 32.2608822766183 34.53195032726366 1.33 
1725 575 2 0.527 32.2608822766183 33.01804967273634 1.33 
1726 576 1 -1.054 2.0300000000000002 17.29 24.394999999999996 
1727 576 2 0.527 2.615882276618295 18.046950327263662 24.394999999999996 
1728 576 2 0.527 2.615882276618295 16.53304967273634 24.394999999999996 
1729 577 1 -1.054 1.785 34.685 8.61 
1730 577 2 0.527 2.370882276618295 35.44195032726366 8.61 
1731 577 2 0.527 2.370882276618295 33.92804967273634 8.61 
1732 578 1 -1.054 31.009999999999998 6.895 20.79 
1733 578 2 0.527 31.595882276618298 7.651950327263661 20.79 
1734 578 2 0.527 31.595882276618298 6.138049672736338 20.79 
1735 579 1 -1.054 6.194999999999999 21.595 27.195 
1736 579 2 0.527 6.780882276618295 22.351950327263662 27.195 
1737 579 2 0.527 6.780882276618295 20.83804967273634 27.195 
1738 580 1 -1.054 17.675 32.375 28.42 
1739 580 2 0.527 18.260882276618297 33.13195032726367 28.42 
1740 580 2 0.527 18.260882276618297 31.61804967273634 28.42 
1741 581 1 -1.054 16.03 18.62 16.66 
1742 581 2 0.527 16.615882276618294 19.376950327263664 16.66 
1743 581 2 0.527 16.615882276618294 17.863049672736338 16.66 
1744 582 1 -1.054 19.775 20.895000000000003 27.02 
1745 582 2 0.527 20.36088227661829 21.651950327263663 27.02 
1746 582 2 0.527 20.36088227661829 20.13804967273634 27.02 
1747 583 1 -1.054 21.875 4.48 6.790000000000001 
1748 583 2 0.527 22.460882276618296 5.236950327263661 6.790000000000001 
1749 583 2 0.527 22.460882276618296 3.7230496727363387 6.790000000000001 
1750 584 1 -1.054 31.044999999999998 5.3549999999999995 8.120000000000001 
1751 584 2 0.527 31.630882276618294 6.111950327263661 8.120000000000001 
1752 584 2 0.527 31.630882276618294 4.598049672736338 8.120000000000001 
1753 585 1 -1.054 25.41 5.985 18.305 
1754 585 2 0.527 25.995882276618296 6.741950327263662 18.305 
1755 585 2 0.527 25.995882276618296 5.228049672736339 18.305 
1756 586 1 -1.054 31.150000000000002 21.98 9.975 
1757 586 2 0.527 31.735882276618298 22.73695032726366 9.975 
1758 586 2 0.527 31.735882276618298 21.223049672736337 9.975 
1759 587 1 -1.054 30.8 32.9 3.85 
1760 587 2 0.527 31.385882276618297 33.65695032726366 3.85 
1761 587 2 0.527 31.385882276618297 32.14304967273634 3.85 
1762 588 1 -1.054 24.744999999999997 19.18 13.195 
1763 588 2 0.527 25.330882276618297 19.936950327263663 13.195 
1764 588 2 0.527 25.330882276618297 18.42304967273634 13.195 
1765 589 1 -1.054 12.355 21.665 0.56 
1766 589 2 0.527 12.940882276618295 22.421950327263662 0.56 
1767 589 2 0.527 12.940882276618295 20.90804967273634 0.56 
1768 590 1 -1.054 3.15 2.8350000000000004 26.985 
1769 590 2 0.527 3.7358822766182946 3.5919503272636617 26.985 
1770 590 2 0.527 3.7358822766182946 2.078049672736339 26.985 
1771 591 1 -1.054 30.310000000000002 3.15 23.695000000000004 
1772 591 2 0.527 30.8958822766183 3.906950327263661 23.695000000000004 
1773 591 2 0.527 30.8958822766183 2.3930496727363386 23.695000000000004 
1774 592 1 -1.054 25.13 13.825000000000001 13.79 
1775 592 2 0.527 25.715882276618295 14.581950327263662 13.79 
1776 592 2 0.527 25.715882276618295 13.06804967273634 13.79 
1777 593 1 -1.054 15.120000000000001 10.184999999999999 6.09 
1778 593 2 0.527 15.705882276618295 10.941950327263662 6.09 
1779 593 2 0.527 15.705882276618295 9.42804967273634 6.09 
1780 594 1 -1.054 32.305 14.629999999999999 27.825000000000003 
1781 594 2 0.527 32.8908822766183 15.38695032726366 27.825000000000003 
1782 594 2 0.527 32.8908822766183 13.873049672736338 27.825000000000003 
1783 595 1 -1.054 11.235 9.73 4.41 
1784 595 2 0.527 11.820882276618294 10.486950327263662 4.41 
1785 595 2 0.527 11.820882276618294 8.97304967273634 4.41 
1786 596 1 -1.054 17.255 26.915 27.615000000000002 
1787 596 2 0.527 17.840882276618295 27.671950327263662 27.615000000000002 
1788 596 2 0.527 17.840882276618295 26.15804967273634 27.615000000000002 
1789 597 1 -1.054 17.43 19.635 4.025 
1790 597 2 0.527 18.015882276618292 20.391950327263665 4.025 
1791 597 2 0.527 18.015882276618292 18.878049672736342 4.025 
1792 598 1 -1.054 27.895000000000003 5.775 11.760000000000002 
1793 598 2 0.527 28.4808822766183 6.531950327263662 11.760000000000002 
1794 598 2 0.527 28.4808822766183 5.018049672736339 11.760000000000002 
1795 599 1 -1.054 28.175000000000004 22.365 3.8850000000000002 
1796 599 2 0.527 28.7608822766183 23.12195032726366 3.8850000000000002 
1797 599 2 0.527 28.7608822766183 21.60804967273634 3.8850000000000002 
1798 600 1 -1.054 33.25 5.635 26.775000000000002 
1799 600 2 0.527 33.83588227661829 6.391950327263661 26.775000000000002 
1800 600 2 0.527 33.83588227661829 4.8780496727363385 26.775000000000002 
1801 601 1 -1.054 17.185 29.855 31.71 
1802 601 2 0.527 17.770882276618295 30.611950327263663 31.71 
1803 601 2 0.527 17.770882276618295 29.098049672736337 31.71 
1804 602 1 -1.054 2.9400000000000004 6.055 29.505 
1805 602 2 0.527 3.525882276618295 6.811950327263661 29.505 
1806 602 2 0.527 3.525882276618295 5.298049672736338 29.505 
1807 603 1 -1.054 28.070000000000004 25.619999999999997 15.469999999999999 
1808 603 2 0.527 28.6558822766183 26.37695032726366 15.469999999999999 
1809 603 2 0.527 28.6558822766183 24.863049672736338 15.469999999999999 
1810 604 1 -1.054 31.044999999999998 8.4 32.83 
1811 604 2 0.527 31.630882276618294 9.156950327263662 32.83 
1812 604 2 0.527 31.630882276618294 7.643049672736338 32.83 
1813 605 1 -1.054 1.155 28.63 4.48 
1814 605 2 0.527 1.740882276618295 29.386950327263662 4.48 
1815 605 2 0.527 1.740882276618295 27.87304967273634 4.48 
1816 606 1 -1.054 15.225 29.714999999999996 16.8 
1817 606 2 0.527 15.810882276618294 30.47195032726366 16.8 
1818 606 2 0.527 15.810882276618294 28.958049672736337 16.8 
1819 607 1 -1.054 11.094999999999999 25.305 24.185 
1820 607 2 0.527 11.680882276618295 26.06195032726366 24.185 
1821 607 2 0.527 11.680882276618295 24.54804967273634 24.185 
1822 608 1 -1.054 6.16 11.48 18.55 
1823 608 2 0.527 6.745882276618294 12.236950327263663 18.55 
1824 608 2 0.527 6.745882276618294 10.723049672736341 18.55 
1825 609 1 -1.054 18.83 7.734999999999999 32.725 
1826 609 2 0.527 19.415882276618294 8.49195032726366 32.725 
1827 609 2 0.527 19.415882276618294 6.978049672736338 32.725 
1828 610 1 -1.054 28.595 3.7800000000000002 30.135 
1829 610 2 0.527 29.180882276618295 4.5369503272636615 30.135 
1830 610 2 0.527 29.180882276618295 3.023049672736339 30.135 
1831 611 1 -1.054 19.775 29.435 5.145 
1832 611 2 0.527 20.36088227661829 30.19195032726366 5.145 
1833 611 2 0.527 20.36088227661829 28.678049672736336 5.145 
1834 612 1 -1.054 14.524999999999999 18.165 2.87 
1835 612 2 0.527 15.110882276618295 18.921950327263662 2.87 
1836 612 2 0.527 15.110882276618295 17.40804967273634 2.87 
1837 613 1 -1.054 10.57 6.265 26.25 
1838 613 2 0.527 11.155882276618295 7.021950327263661 26.25 
1839 613 2 0.527 11.155882276618295 5.508049672736338 26.25 
1840 614 1 -1.054 24.115 15.155000000000001 32.550000000000004 
1841 614 2 0.527 24.700882276618294 15.911950327263662 32.550000000000004 
1842 614 2 0.527 24.700882276618294 14.39804967273634 32.550000000000004 
1843 615 1 -1.054 18.060000000000002 15.925 15.855 
1844 615 2 0.527 18.645882276618295 16.68195032726366 15.855 
1845 615 2 0.527 18.645882276618295 15.16804967273634 15.855 
1846 616 1 -1.054 6.265 31.71 18.060000000000002 
1847 616 2 0.527 6.850882276618294 32.46695032726366 18.060000000000002 
1848 616 2 0.527 6.850882276618294 30.95304967273634 18.060000000000002 
1849 617 1 -1.054 5.705 13.055 4.375 
1850 617 2 0.527 6.290882276618294 13.81195032726366 4.375 
1851 617 2 0.527 6.290882276618294 12.298049672736337 4.375 
1852 618 1 -1.054 13.3 25.339999999999996 29.295 
1853 618 2 0.527 13.885882276618295 26.09695032726366 29.295 
1854 618 2 0.527 13.885882276618295 24.583049672736337 29.295 
1855 619 1 -1.054 4.165 10.149999999999999 13.23 
1856 619 2 0.527 4.750882276618294 10.90695032726366 13.23 
1857 619 2 0.527 4.750882276618294 9.393049672736337 13.23 
1858 620 1 -1.054 23.485 16.345 14.245 
1859 620 2 0.527 24.0708822766183 17.101950327263662 14.245 
1860 620 2 0.527 24.0708822766183 15.58804967273634 14.245 
1861 621 1 -1.054 12.214999999999998 13.965 3.57 
1862 621 2 0.527 12.800882276618292 14.721950327263663 3.57 
1863 621 2 0.527 12.800882276618292 13.20804967273634 3.57 
1864 622 1 -1.054 23.625000000000004 30.240000000000002 29.855 
1865 622 2 0.527 24.2108822766183 30.99695032726366 29.855 
1866 622 2 0.527 24.2108822766183 29.48304967273634 29.855 
1867 623 1 -1.054 28.28 4.9 20.195 
1868 623 2 0.527 28.8658822766183 5.656950327263662 20.195 
1869 623 2 0.527 28.8658822766183 4.143049672736339 20.195 
1870 624 1 -1.054 31.5 7.91 18.130000000000003 
1871 624 2 0.527 32.08588227661829 8.666950327263661 18.130000000000003 
1872 624 2 0.527 32.08588227661829 7.153049672736339 18.130000000000003 
1873 625 1 -1.054 6.124999999999999 3.85 4.760000000000001 
1874 625 2 0.527 6.710882276618294 4.606950327263661 4.760000000000001 
1875 625 2 0.527 6.710882276618294 3.093049672736339 4.760000000000001 
1876 626 1 -1.054 9.450000000000001 15.365 24.115 
1877 626 2 0.527 10.035882276618295 16.12195032726366 24.115 
1878 626 2 0.527 10.035882276618295 14.608049672736339 24.115 
1879 627 1 -1.054 31.955 0.21000000000000002 33.879999999999995 
1880 627 2 0.527 32.5408822766183 0.9669503272636613 33.879999999999995 
1881 627 2 0.527 32.5408822766183 -0.5469503272636611 33.879999999999995 
1882 628 1 -1.054 31.29 1.12 30.905 
1883 628 2 0.527 31.8758822766183 1.8769503272636612 30.905 
1884 628 2 0.527 31.8758822766183 0.36304967273633887 30.905 
1885 629 1 -1.054 15.785 24.989999999999995 0.35000000000000003 
1886 629 2 0.527 16.370882276618296 25.746950327263658 0.35000000000000003 
1887 629 2 0.527 16.370882276618296 24.233049672736335 0.35000000000000003 
1888 630 1 -1.054 24.36 14.105 6.755 
1889 630 2 0.527 24.945882276618295 14.861950327263662 6.755 
1890 630 2 0.527 24.945882276618295 13.34804967273634 6.755 
1891 631 1 -1.054 24.955 18.69 32.27 
1892 631 2 0.527 25.540882276618294 19.446950327263664 32.27 
1893 631 2 0.527 25.540882276618294 17.93304967273634 32.27 
1894 632 1 -1.054 14.909999999999998 31.465 19.95 
1895 632 2 0.527 15.495882276618293 32.22195032726366 19.95 
1896 632 2 0.527 15.495882276618293 30.70804967273634 19.95 
1897 633 1 -1.054 33.95 23.135000000000005 33.985 
1898 633 2 0.527 34.535882276618295 23.891950327263665 33.985 
1899 633 2 0.527 34.535882276618295 22.378049672736342 33.985 
1900 634 1 -1.054 20.124999999999996 22.82 14.315 
1901 634 2 0.527 20.710882276618293 23.57695032726366 14.315 
1902 634 2 0.527 20.710882276618293 22.06304967273634 14.315 
1903 635 1 -1.054 6.194999999999999 19.53 16.695 
1904 635 2 0.527 6.780882276618295 20.286950327263664 16.695 
1905 635 2 0.527 6.780882276618295 18.77304967273634 16.695 
1906 636 1 -1.054 20.685 24.22 6.65 
1907 636 2 0.527 21.270882276618295 24.97695032726366 6.65 
1908 636 2 0.527 21.270882276618295 23.463049672736336 6.65 
1909 637 1 -1.054 17.43 1.7500000000000002 6.44 
1910 637 2 0.527 18.015882276618292 2.5069503272636613 6.44 
1911 637 2 0.527 18.015882276618292 0.993049672736339 6.44 
1912 638 1 -1.054 19.145 10.534999999999998 16.939999999999998 
1913 638 2 0.527 19.730882276618296 11.29195032726366 16.939999999999998 
1914 638 2 0.527 19.730882276618296 9.778049672736337 16.939999999999998 
1915 639 1 -1.054 22.61 31.395 19.565 
1916 639 2 0.527 23.1958822766183 32.15195032726366 19.565 
1917 639 2 0.527 23.1958822766183 30.638049672736337 19.565 
1918 640 1 -1.054 19.775 9.520000000000001 4.165 
1919 640 2 0.527 20.36088227661829 10.27695032726366 4.165 
1920 640 2 0.527 20.36088227661829 8.76304967273634 4.165 
1921 641 1 -1.054 9.31 16.765 15.4 
1922 641 2 0.527 9.895882276618295 17.52195032726366 15.4 
1923 641 2 0.527 9.895882276618295 16.008049672736337 15.4 
1924 642 1 -1.054 0.10500000000000001 8.05 1.12 
1925 642 2 0.527 0.6908822766182949 8.806950327263662 1.12 
1926 642 2 0.527 0.6908822766182949 7.293049672736339 1.12 
1927 643 1 -1.054 16.275000000000002 13.195 30.52 
1928 643 2 0.527 16.860882276618298 13.951950327263663 30.52 
1929 643 2 0.527 16.860882276618298 12.43804967273634 30.52 
1930 644 1 -1.054 7.84 34.895 19.775 
1931 644 2 0.527 8.425882276618296 35.65195032726366 19.775 
1932 644 2 0.527 8.425882276618296 34.13804967273634 19.775 
1933 645 1 -1.054 5.25 22.189999999999998 7.244999999999999 
1934 645 2 0.527 5.835882276618295 22.94695032726366 7.244999999999999 
1935 645 2 0.527 5.835882276618295 21.433049672736338 7.244999999999999 
1936 646 1 -1.054 15.469999999999999 3.4650000000000003 22.015 
1937 646 2 0.527 16.055882276618295 4.221950327263661 22.015 
1938 646 2 0.527 16.055882276618295 2.708049672736339 22.015 
1939 647 1 -1.054 21.28 30.38 11.97 
1940 647 2 0.527 21.865882276618297 31.13695032726366 11.97 
1941 647 2 0.527 21.865882276618297 29.623049672736336 11.97 
1942 648 1 -1.054 10.149999999999999 27.125 26.39 
1943 648 2 0.527 10.735882276618295 27.88195032726366 26.39 
1944 648 2 0.527 10.735882276618295 26.368049672736337 26.39 
1945 649 1 -1.054 34.335 31.22 11.760000000000002 
1946 649 2 0.527 34.9208822766183 31.97695032726366 11.760000000000002 
1947 649 2 0.527 34.9208822766183 30.46304967273634 11.760000000000002 
1948 650 1 -1.054 19.040000000000003 17.185 32.97 
1949 650 2 0.527 19.625882276618295 17.941950327263662 32.97 
1950 650 2 0.527 19.625882276618295 16.42804967273634 32.97 
1951 651 1 -1.054 20.124999999999996 33.985 2.24 
1952 651 2 0.527 20.710882276618293 34.74195032726366 2.24 
1953 651 2 0.527 20.710882276618293 33.22804967273634 2.24 
1954 652 1 -1.054 23.450000000000003 26.53 33.25 
1955 652 2 0.527 24.0358822766183 27.28695032726366 33.25 
1956 652 2 0.527 24.0358822766183 25.773049672736338 33.25 
1957 653 1 -1.054 28.035 24.429999999999996 10.114999999999998 
1958 653 2 0.527 28.620882276618296 25.18695032726366 10.114999999999998 
1959 653 2 0.527 28.620882276618296 23.673049672736333 10.114999999999998 
1960 654 1 -1.054 20.825 17.08 28.49 
1961 654 2 0.527 21.410882276618295 17.83695032726366 28.49 
1962 654 2 0.527 21.410882276618295 16.32304967273634 28.49 
1963 655 1 -1.054 34.195 24.955 4.7250000000000005 
1964 655 2 0.527 34.78088227661829 25.711950327263658 4.7250000000000005 
1965 655 2 0.527 34.78088227661829 24.19804967273634 4.7250000000000005 
1966 656 1 -1.054 29.54 2.24 33.11 
1967 656 2 0.527 30.125882276618295 2.996950327263661 33.11 
1968 656 2 0.527 30.125882276618295 1.483049672736339 33.11 
1969 657 1 -1.054 23.380000000000003 27.229999999999997 20.755 
1970 657 2 0.527 23.9658822766183 27.98695032726366 20.755 
1971 657 2 0.527 23.9658822766183 26.473049672736337 20.755 
1972 658 1 -1.054 12.6 18.55 0.8750000000000001 
1973 658 2 0.527 13.185882276618294 19.30695032726366 0.8750000000000001 
1974 658 2 0.527 13.185882276618294 17.793049672736338 0.8750000000000001 
1975 659 1 -1.054 29.819999999999997 22.54 34.195 
1976 659 2 0.527 30.405882276618293 23.296950327263662 34.195 
1977 659 2 0.527 30.405882276618293 21.78304967273634 34.195 
1978 660 1 -1.054 31.395 5.74 29.085 
1979 660 2 0.527 31.980882276618296 6.4969503272636615 29.085 
1980 660 2 0.527 31.980882276618296 4.983049672736339 29.085 
1981 661 1 -1.054 29.19 11.025 32.480000000000004 
1982 661 2 0.527 29.775882276618297 11.781950327263662 32.480000000000004 
1983 661 2 0.527 29.775882276618297 10.268049672736339 32.480000000000004 
1984 662 1 -1.054 33.25 4.760000000000001 16.835 
1985 662 2 0.527 33.83588227661829 5.516950327263661 16.835 
1986 662 2 0.527 33.83588227661829 4.003049672736339 16.835 
1987 663 1 -1.054 6.720000000000001 19.005000000000003 1.12 
1988 663 2 0.527 7.305882276618295 19.761950327263662 1.12 
1989 663 2 0.527 7.305882276618295 18.24804967273634 1.12 
1990 664 1 -1.054 29.47 30.73 17.92 
1991 664 2 0.527 30.0558822766183 31.48695032726366 17.92 
1992 664 2 0.527 30.0558822766183 29.973049672736337 17.92 
1993 665 1 -1.054 17.71 29.119999999999997 18.27 
1994 665 2 0.527 18.295882276618293 29.87695032726366 18.27 
1995 665 2 0.527 18.295882276618293 28.363049672736338 18.27 
1996 666 1 -1.054 11.235 4.69 17.01 
1997 666 2 0.527 11.820882276618294 5.446950327263661 17.01 
1998 666 2 0.527 11.820882276618294 3.933049672736339 17.01 
1999 667 1 -1.054 33.17999999999999 16.45 9.66 
2000 667 2 0.527 33.76588227661829 17.206950327263662 9.66 
2001 667 2 0.527 33.76588227661829 15.69304967273634 9.66 
2002 668 1 -1.054 13.93 2.275 18.165 
2003 668 2 0.527 14.515882276618296 3.031950327263661 18.165 
2004 668 2 0.527 14.515882276618296 1.518049672736339 18.165 
2005 669 1 -1.054 4.13 32.34 21.490000000000002 
2006 669 2 0.527 4.715882276618294 33.09695032726366 21.490000000000002 
2007 669 2 0.527 4.715882276618294 31.583049672736337 21.490000000000002 
2008 670 1 -1.054 23.730000000000004 26.005 9.695 
2009 670 2 0.527 24.3158822766183 26.76195032726366 9.695 
2010 670 2 0.527 24.3158822766183 25.248049672736336 9.695 
2011 671 1 -1.054 11.515 9.485000000000001 24.08 
2012 671 2 0.527 12.100882276618295 10.241950327263663 24.08 
2013 671 2 0.527 12.100882276618295 8.72804967273634 24.08 
2014 672 1 -1.054 11.900000000000002 28.56 14.349999999999998 
2015 672 2 0.527 12.485882276618296 29.316950327263662 14.349999999999998 
2016 672 2 0.527 12.485882276618296 27.803049672736336 14.349999999999998 
2017 673 1 -1.054 31.080000000000002 15.61 29.645000000000003 
2018 673 2 0.527 31.665882276618298 16.36695032726366 29.645000000000003 
2019 673 2 0.527 31.665882276618298 14.853049672736338 29.645000000000003 
2020 674 1 -1.054 2.9750000000000005 13.72 33.144999999999996 
2021 674 2 0.527 3.5608822766182953 14.476950327263662 33.144999999999996 
2022 674 2 0.527 3.5608822766182953 12.96304967273634 33.144999999999996 
2023 675 1 -1.054 33.32 13.51 13.72 
2024 675 2 0.527 33.90588227661829 14.266950327263661 13.72 
2025 675 2 0.527 33.90588227661829 12.753049672736338 13.72 
2026 676 1 -1.054 4.760000000000001 18.935000000000002 8.75 
2027 676 2 0.527 5.345882276618296 19.691950327263662 8.75 
2028 676 2 0.527 5.345882276618296 18.17804967273634 8.75 
2029 677 1 -1.054 2.0300000000000002 23.450000000000003 5.950000000000001 
2030 677 2 0.527 2.615882276618295 24.206950327263662 5.950000000000001 
2031 677 2 0.527 2.615882276618295 22.69304967273634 5.950000000000001 
2032 678 1 -1.054 24.429999999999996 3.3600000000000003 16.065 
2033 678 2 0.527 25.015882276618292 4.116950327263662 16.065 
2034 678 2 0.527 25.015882276618292 2.603049672736339 16.065 
2035 679 1 -1.054 21.77 34.615 33.005 
2036 679 2 0.527 22.355882276618296 35.37195032726366 33.005 
2037 679 2 0.527 22.355882276618296 33.85804967273634 33.005 
2038 680 1 -1.054 3.57 14.07 19.32 
2039 680 2 0.527 4.155882276618295 14.826950327263662 19.32 
2040 680 2 0.527 4.155882276618295 13.313049672736339 19.32 
2041 681 1 -1.054 13.02 13.51 8.469999999999999 
2042 681 2 0.527 13.605882276618296 14.266950327263661 8.469999999999999 
2043 681 2 0.527 13.605882276618296 12.753049672736338 8.469999999999999 
2044 682 1 -1.054 34.615 25.270000000000003 29.89 
2045 682 2 0.527 35.200882276618294 26.026950327263663 29.89 
2046 682 2 0.527 35.200882276618294 24.51304967273634 29.89 
2047 683 1 -1.054 2.135 31.430000000000003 31.78 
2048 683 2 0.527 2.720882276618295 32.186950327263666 31.78 
2049 683 2 0.527 2.720882276618295 30.67304967273634 31.78 
2050 684 1 -1.054 25.689999999999998 4.375 1.225 
2051 684 2 0.527 26.275882276618297 5.131950327263661 1.225 
2052 684 2 0.527 26.275882276618297 3.6180496727363387 1.225 
2053 685 1 -1.054 11.41 4.445 1.05 
2054 685 2 0.527 11.995882276618294 5.201950327263662 1.05 
2055 685 2 0.527 11.995882276618294 3.688049672736339 1.05 
2056 686 1 -1.054 7.7 8.05 8.61 
2057 686 2 0.527 8.285882276618295 8.806950327263662 8.61 
2058 686 2 0.527 8.285882276618295 7.293049672736339 8.61 
2059 687 1 -1.054 30.240000000000002 23.800000000000004 24.01 
2060 687 2 0.527 30.825882276618298 24.556950327263664 24.01 
2061 687 2 0.527 30.825882276618298 23.04304967273634 24.01 
2062 688 1 -1.054 4.655 6.790000000000001 13.93 
2063 688 2 0.527 5.240882276618295 7.546950327263662 13.93 
2064 688 2 0.527 5.240882276618295 6.03304967273634 13.93 
2065 689 1 -1.054 5.074999999999999 16.8 30.52 
2066 689 2 0.527 5.6608822766182945 17.55695032726366 30.52 
2067 689 2 0.527 5.6608822766182945 16.043049672736338 30.52 
2068 690 1 -1.054 20.09 12.04 11.620000000000001 
2069 690 2 0.527 20.675882276618296 12.79695032726366 11.620000000000001 
2070 690 2 0.527 20.675882276618296 11.283049672736338 11.620000000000001 
2071 691 1 -1.054 4.234999999999999 31.395 14.84 
2072 691 2 0.527 4.820882276618295 32.15195032726366 14.84 
2073 691 2 0.527 4.820882276618295 30.638049672736337 14.84 
2074 692 1 -1.054 3.71 25.444999999999997 1.4000000000000001 
2075 692 2 0.527 4.295882276618295 26.20195032726366 1.4000000000000001 
2076 692 2 0.527 4.295882276618295 24.688049672736337 1.4000000000000001 
2077 693 1 -1.054 24.884999999999998 8.294999999999998 16.345 
2078 693 2 0.527 25.470882276618294 9.051950327263661 16.345 
2079 693 2 0.527 25.470882276618294 7.538049672736338 16.345 
2080 694 1 -1.054 15.96 5.004999999999999 33.144999999999996 
2081 694 2 0.527 16.545882276618297 5.76195032726366 33.144999999999996 
2082 694 2 0.527 16.545882276618297 4.248049672736338 33.144999999999996 
2083 695 1 -1.054 2.8000000000000003 19.040000000000003 29.89 
2084 695 2 0.527 3.385882276618295 19.796950327263662 29.89 
2085 695 2 0.527 3.385882276618295 18.28304967273634 29.89 
2086 696 1 -1.054 4.025 17.325 2.52 
2087 696 2 0.527 4.610882276618295 18.081950327263662 2.52 
2088 696 2 0.527 4.610882276618295 16.568049672736336 2.52 
2089 697 1 -1.054 5.775 21.63 29.714999999999996 
2090 697 2 0.527 6.360882276618295 22.38695032726366 29.714999999999996 
2091 697 2 0.527 6.360882276618295 20.873049672736336 29.714999999999996 
2092 698 1 -1.054 34.3 32.795 30.275 
2093 698 2 0.527 34.8858822766183 33.55195032726366 30.275 
2094 698 2 0.527 34.8858822766183 32.03804967273634 30.275 
2095 699 1 -1.054 30.345 6.965 14.245 
2096 699 2 0.527 30.9308822766183 7.721950327263661 14.245 
2097 699 2 0.527 30.9308822766183 6.208049672736339 14.245 
2098 700 1 -1.054 10.605 7.7 17.115000000000002 
2099 700 2 0.527 11.190882276618295 8.456950327263662 17.115000000000002 
2100 700 2 0.527 11.190882276618295 6.943049672736339 17.115000000000002 
2101 701 1 -1.054 24.955 31.745 25.235 
2102 701 2 0.527 25.540882276618294 32.501950327263664 25.235 
2103 701 2 0.527 25.540882276618294 30.988049672736338 25.235 
2104 702 1 -1.054 9.765 34.44 1.61 
2105 702 2 0.527 10.350882276618297 35.196950327263664 1.61 
2106 702 2 0.527 10.350882276618297 33.68304967273634 1.61 
2107 703 1 -1.054 26.46 18.725 18.165 
2108 703 2 0.527 27.045882276618297 19.48195032726366 18.165 
2109 703 2 0.527 27.045882276618297 17.96804967273634 18.165 
2110 704 1 -1.054 15.049999999999999 6.16 24.815 
2111 704 2 0.527 15.635882276618293 6.916950327263661 24.815 
2112 704 2 0.527 15.635882276618293 5.403049672736339 24.815 
2113 705 1 -1.054 26.775000000000002 7.84 25.724999999999998 
2114 705 2 0.527 27.360882276618298 8.596950327263661 25.724999999999998 
2115 705 2 0.527 27.360882276618298 7.083049672736339 25.724999999999998 
2116 706 1 -1.054 16.52 26.075 22.715 
2117 706 2 0.527 17.105882276618296 26.831950327263662 22.715 
2118 706 2 0.527 17.105882276618296 25.318049672736336 22.715 
2119 707 1 -1.054 14.42 32.550000000000004 14.28 
2120 707 2 0.527 15.005882276618294 33.306950327263664 14.28 
2121 707 2 0.527 15.005882276618294 31.79304967273634 14.28 
2122 708 1 -1.054 15.925 10.43 22.400000000000002 
2123 708 2 0.527 16.510882276618297 11.186950327263661 22.400000000000002 
2124 708 2 0.527 16.510882276618297 9.673049672736338 22.400000000000002 
2125 709 1 -1.054 2.135 32.06 26.985 
2126 709 2 0.527 2.720882276618295 32.81695032726366 26.985 
2127 709 2 0.527 2.720882276618295 31.30304967273634 26.985 
2128 710 1 -1.054 4.760000000000001 0.7000000000000001 19.040000000000003 
2129 710 2 0.527 5.345882276618296 1.4569503272636615 19.040000000000003 
2130 710 2 0.527 5.345882276618296 -0.05695032726366109 19.040000000000003 
2131 711 1 -1.054 30.064999999999998 0.5950000000000001 19.53 
2132 711 2 0.527 30.650882276618297 1.3519503272636613 19.53 
2133 711 2 0.527 30.650882276618297 -0.1619503272636611 19.53 
2134 712 1 -1.054 25.935000000000002 6.265 21.14 
2135 712 2 0.527 26.5208822766183 7.021950327263661 21.14 
2136 712 2 0.527 26.5208822766183 5.508049672736338 21.14 
2137 713 1 -1.054 23.520000000000003 22.189999999999998 15.26 
2138 713 2 0.527 24.1058822766183 22.94695032726366 15.26 
2139 713 2 0.527 24.1058822766183 21.433049672736338 15.26 
2140 714 1 -1.054 9.31 20.964999999999996 0.45499999999999996 
2141 714 2 0.527 9.895882276618295 21.72195032726366 0.45499999999999996 
2142 714 2 0.527 9.895882276618295 20.208049672736337 0.45499999999999996 
2143 715 1 -1.054 27.720000000000002 5.285 23.66 
2144 715 2 0.527 28.3058822766183 6.041950327263661 23.66 
2145 715 2 0.527 28.3058822766183 4.528049672736339 23.66 
2146 716 1 -1.054 18.130000000000003 20.019999999999996 30.8 
2147 716 2 0.527 18.715882276618295 20.77695032726366 30.8 
2148 716 2 0.527 18.715882276618295 19.263049672736337 30.8 
2149 717 1 -1.054 5.32 20.58 24.394999999999996 
2150 717 2 0.527 5.905882276618295 21.336950327263658 24.394999999999996 
2151 717 2 0.527 5.905882276618295 19.82304967273634 24.394999999999996 
2152 718 1 -1.054 20.195 27.93 29.855 
2153 718 2 0.527 20.780882276618296 28.686950327263663 29.855 
2154 718 2 0.527 20.780882276618296 27.17304967273634 29.855 
2155 719 1 -1.054 24.01 1.505 8.925 
2156 719 2 0.527 24.595882276618298 2.261950327263661 8.925 
2157 719 2 0.527 24.595882276618298 0.7480496727363388 8.925 
2158 720 1 -1.054 23.94 2.135 18.725 
2159 720 2 0.527 24.525882276618297 2.891950327263661 18.725 
2160 720 2 0.527 24.525882276618297 1.378049672736339 18.725 
2161 721 1 -1.054 4.025 31.150000000000002 29.819999999999997 
2162 721 2 0.527 4.610882276618295 31.906950327263665 29.819999999999997 
2163 721 2 0.527 4.610882276618295 30.39304967273634 29.819999999999997 
2164 722 1 -1.054 1.7500000000000002 28.14 27.755000000000003 
2165 722 2 0.527 2.335882276618295 28.89695032726366 27.755000000000003 
2166 722 2 0.527 2.335882276618295 27.38304967273634 27.755000000000003 
2167 723 1 -1.054 31.815 26.32 15.049999999999999 
2168 723 2 0.527 32.4008822766183 27.076950327263663 15.049999999999999 
2169 723 2 0.527 32.4008822766183 25.56304967273634 15.049999999999999 
2170 724 1 -1.054 7.07 25.095 26.46 
2171 724 2 0.527 7.6558822766182955 25.851950327263662 26.46 
2172 724 2 0.527 7.6558822766182955 24.33804967273634 26.46 
2173 725 1 -1.054 22.259999999999998 19.565 6.055 
2174 725 2 0.527 22.845882276618298 20.321950327263664 6.055 
2175 725 2 0.527 22.845882276618298 18.808049672736338 6.055 
2176 726 1 -1.054 32.025 26.005 10.815 
2177 726 2 0.527 32.6108822766183 26.76195032726366 10.815 
2178 726 2 0.527 32.6108822766183 25.248049672736336 10.815 
2179 727 1 -1.054 26.25 26.145 19.705 
2180 727 2 0.527 26.835882276618296 26.901950327263663 19.705 
2181 727 2 0.527 26.835882276618296 25.38804967273634 19.705 
2182 728 1 -1.054 6.58 10.325 10.674999999999999 
2183 728 2 0.527 7.165882276618295 11.08195032726366 10.674999999999999 
2184 728 2 0.527 7.165882276618295 9.568049672736338 10.674999999999999 
2185 729 1 -1.054 16.03 13.125 2.275 
2186 729 2 0.527 16.615882276618294 13.881950327263661 2.275 
2187 729 2 0.527 16.615882276618294 12.368049672736339 2.275 
2188 730 1 -1.054 19.39 28.245 22.96 
2189 730 2 0.527 19.975882276618297 29.00195032726366 22.96 
2190 730 2 0.527 19.975882276618297 27.488049672736338 22.96 
2191 731 1 -1.054 2.87 10.045 8.855 
2192 731 2 0.527 3.4558822766182953 10.801950327263661 8.855 
2193 731 2 0.527 3.4558822766182953 9.288049672736339 8.855 
2194 732 1 -1.054 33.46 9.625000000000002 2.66 
2195 732 2 0.527 34.0458822766183 10.381950327263663 2.66 
2196 732 2 0.527 34.0458822766183 8.86804967273634 2.66 
2197 733 1 -1.054 29.855 1.54 0.8400000000000001 
2198 733 2 0.527 30.440882276618296 2.296950327263661 0.8400000000000001 
2199 733 2 0.527 30.440882276618296 0.7830496727363389 0.8400000000000001 
2200 734 1 -1.054 31.71 24.185 12.95 
2201 734 2 0.527 32.2958822766183 24.941950327263662 12.95 
2202 734 2 0.527 32.2958822766183 23.428049672736336 12.95 
2203 735 1 -1.054 0.7350000000000001 25.375 21.455000000000002 
2204 735 2 0.527 1.320882276618295 26.131950327263663 21.455000000000002 
2205 735 2 0.527 1.320882276618295 24.61804967273634 21.455000000000002 
2206 736 1 -1.054 16.03 5.32 17.85 
2207 736 2 0.527 16.615882276618294 6.076950327263662 17.85 
2208 736 2 0.527 16.615882276618294 4.563049672736339 17.85 
2209 737 1 -1.054 27.895000000000003 28.035 13.860000000000001 
2210 737 2 0.527 28.4808822766183 28.791950327263663 13.860000000000001 
2211 737 2 0.527 28.4808822766183 27.27804967273634 13.860000000000001 
2212 738 1 -1.054 23.94 30.45 6.965 
2213 738 2 0.527 24.525882276618297 31.206950327263662 6.965 
2214 738 2 0.527 24.525882276618297 29.693049672736336 6.965 
2215 739 1 -1.054 9.485000000000001 26.215000000000003 21.665 
2216 739 2 0.527 10.070882276618295 26.971950327263663 21.665 
2217 739 2 0.527 10.070882276618295 25.45804967273634 21.665 
2218 740 1 -1.054 10.57 15.82 11.27 
2219 740 2 0.527 11.155882276618295 16.576950327263663 11.27 
2220 740 2 0.527 11.155882276618295 15.063049672736339 11.27 
2221 741 1 -1.054 27.755000000000003 15.75 6.194999999999999 
2222 741 2 0.527 28.3408822766183 16.50695032726366 6.194999999999999 
2223 741 2 0.527 28.3408822766183 14.993049672736339 6.194999999999999 
2224 742 1 -1.054 29.295 17.955000000000002 9.415 
2225 742 2 0.527 29.880882276618298 18.71195032726366 9.415 
2226 742 2 0.527 29.880882276618298 17.19804967273634 9.415 
2227 743 1 -1.054 28.000000000000004 20.404999999999998 21.595 
2228 743 2 0.527 28.5858822766183 21.16195032726366 21.595 
2229 743 2 0.527 28.5858822766183 19.648049672736335 21.595 
2230 744 1 -1.054 23.905 0.42000000000000004 3.045 
2231 744 2 0.527 24.4908822766183 1.1769503272636612 3.045 
2232 744 2 0.527 24.4908822766183 -0.33695032726366114 3.045 
2233 745 1 -1.054 9.065000000000001 14.035000000000002 33.845 
2234 745 2 0.527 9.650882276618296 14.791950327263663 33.845 
2235 745 2 0.527 9.650882276618296 13.27804967273634 33.845 
2236 746 1 -1.054 16.380000000000003 8.89 33.214999999999996 
2237 746 2 0.527 16.965882276618295 9.646950327263662 33.214999999999996 
2238 746 2 0.527 16.965882276618295 8.13304967273634 33.214999999999996 
2239 747 1 -1.054 31.955 8.294999999999998 23.520000000000003 
2240 747 2 0.527 32.5408822766183 9.051950327263661 23.520000000000003 
2241 747 2 0.527 32.5408822766183 7.538049672736338 23.520000000000003 
2242 748 1 -1.054 11.165000000000001 9.485000000000001 8.120000000000001 
2243 748 2 0.527 11.750882276618295 10.241950327263663 8.120000000000001 
2244 748 2 0.527 11.750882276618295 8.72804967273634 8.120000000000001 
2245 749 1 -1.054 25.444999999999997 13.93 22.259999999999998 
2246 749 2 0.527 26.030882276618293 14.686950327263661 22.259999999999998 
2247 749 2 0.527 26.030882276618293 13.173049672736338 22.259999999999998 
2248 750 1 -1.054 9.8 11.515 19.705 
2249 750 2 0.527 10.385882276618297 12.27195032726366 19.705 
2250 750 2 0.527 10.385882276618297 10.758049672736337 19.705 
2251 751 1 -1.054 4.445 27.265 11.620000000000001 
2252 751 2 0.527 5.030882276618295 28.021950327263664 11.620000000000001 
2253 751 2 0.527 5.030882276618295 26.50804967273634 11.620000000000001 
2254 752 1 -1.054 7.875 0.28 12.74 
2255 752 2 0.527 8.460882276618294 1.036950327263661 12.74 
2256 752 2 0.527 8.460882276618294 -0.47695032726366116 12.74 
2257 753 1 -1.054 26.53 12.355 10.045 
2258 753 2 0.527 27.115882276618297 13.111950327263662 10.045 
2259 753 2 0.527 27.115882276618297 11.59804967273634 10.045 
2260 754 1 -1.054 5.425 14.000000000000002 8.190000000000001 
2261 754 2 0.527 6.010882276618295 14.756950327263663 8.190000000000001 
2262 754 2 0.527 6.010882276618295 13.24304967273634 8.190000000000001 
2263 755 1 -1.054 2.625 4.0600000000000005 34.895 
2264 755 2 0.527 3.2108822766182947 4.816950327263662 34.895 
2265 755 2 0.527 3.2108822766182947 3.303049672736339 34.895 
2266 756 1 -1.054 29.54 26.634999999999998 19.11 
2267 756 2 0.527 30.125882276618295 27.39195032726366 19.11 
2268 756 2 0.527 30.125882276618295 25.87804967273634 19.11 
2269 757 1 -1.054 29.75 13.614999999999998 25.165 
2270 757 2 0.527 30.3358822766183 14.371950327263662 25.165 
2271 757 2 0.527 30.3358822766183 12.858049672736339 25.165 
2272 758 1 -1.054 6.475 34.055 32.69 
2273 758 2 0.527 7.060882276618294 34.81195032726366 32.69 
2274 758 2 0.527 7.060882276618294 33.29804967273634 32.69 
2275 759 1 -1.054 1.225 10.395 28.874999999999996 
2276 759 2 0.527 1.810882276618295 11.151950327263659 28.874999999999996 
2277 759 2 0.527 1.810882276618295 9.638049672736337 28.874999999999996 
2278 760 1 -1.054 20.265 26.075 9.31 
2279 760 2 0.527 20.850882276618297 26.831950327263662 9.31 
2280 760 2 0.527 20.850882276618297 25.318049672736336 9.31 
2281 761 1 -1.054 5.11 28.35 16.31 
2282 761 2 0.527 5.695882276618295 29.10695032726366 16.31 
2283 761 2 0.527 5.695882276618295 27.59304967273634 16.31 
2284 762 1 -1.054 33.495 30.975 0.98 
2285 762 2 0.527 34.0808822766183 31.73195032726366 0.98 
2286 762 2 0.527 34.0808822766183 30.218049672736342 0.98 
2287 763 1 -1.054 34.335 13.93 33.53 
2288 763 2 0.527 34.9208822766183 14.686950327263661 33.53 
2289 763 2 0.527 34.9208822766183 13.173049672736338 33.53 
2290 764 1 -1.054 15.540000000000001 20.58 29.714999999999996 
2291 764 2 0.527 16.125882276618295 21.336950327263658 29.714999999999996 
2292 764 2 0.527 16.125882276618295 19.82304967273634 29.714999999999996 
2293 765 1 -1.054 26.6 4.62 32.795 
2294 765 2 0.527 27.185882276618297 5.3769503272636605 32.795 
2295 765 2 0.527 27.185882276618297 3.863049672736339 32.795 
2296 766 1 -1.054 9.345 32.410000000000004 32.795 
2297 766 2 0.527 9.930882276618295 33.16695032726366 32.795 
2298 766 2 0.527 9.930882276618295 31.65304967273634 32.795 
2299 767 1 -1.054 11.200000000000001 19.635 5.705 
2300 767 2 0.527 11.785882276618295 20.391950327263665 5.705 
2301 767 2 0.527 11.785882276618295 18.878049672736342 5.705 
2302 768 1 -1.054 1.295 4.2 28.21 
2303 768 2 0.527 1.880882276618295 4.9569503272636615 28.21 
2304 768 2 0.527 1.880882276618295 3.4430496727363384 28.21 
2305 769 1 -1.054 3.115 19.635 13.055 
2306 769 2 0.527 3.7008822766182945 20.391950327263665 13.055 
2307 769 2 0.527 3.7008822766182945 18.878049672736342 13.055 
2308 770 1 -1.054 18.060000000000002 25.025 3.3950000000000005 
2309 770 2 0.527 18.645882276618295 25.78195032726366 3.3950000000000005 
2310 770 2 0.527 18.645882276618295 24.26804967273634 3.3950000000000005 
2311 771 1 -1.054 11.375 13.965 13.825000000000001 
2312 771 2 0.527 11.960882276618294 14.721950327263663 13.825000000000001 
2313 771 2 0.527 11.960882276618294 13.20804967273634 13.825000000000001 
2314 772 1 -1.054 26.775000000000002 32.62 3.71 
2315 772 2 0.527 27.360882276618298 33.376950327263664 3.71 
2316 772 2 0.527 27.360882276618298 31.863049672736338 3.71 
2317 773 1 -1.054 26.005 23.485 26.005 
2318 773 2 0.527 26.590882276618295 24.241950327263663 26.005 
2319 773 2 0.527 26.590882276618295 22.72804967273634 26.005 
2320 774 1 -1.054 10.254999999999999 26.669999999999998 33.705 
2321 774 2 0.527 10.840882276618293 27.42695032726366 33.705 
2322 774 2 0.527 10.840882276618293 25.913049672736335 33.705 
2323 775 1 -1.054 7.21 7.875 2.24 
2324 775 2 0.527 7.795882276618294 8.631950327263661 2.24 
2325 775 2 0.527 7.795882276618294 7.118049672736339 2.24 
2326 776 1 -1.054 28.735 15.155000000000001 23.17 
2327 776 2 0.527 29.320882276618295 15.911950327263662 23.17 
2328 776 2 0.527 29.320882276618295 14.39804967273634 23.17 
2329 777 1 -1.054 31.85 17.115000000000002 22.82 
2330 777 2 0.527 32.4358822766183 17.87195032726366 22.82 
2331 777 2 0.527 32.4358822766183 16.35804967273634 22.82 
2332 778 1 -1.054 2.485 20.124999999999996 2.3800000000000003 
2333 778 2 0.527 3.0708822766182946 20.88195032726366 2.3800000000000003 
2334 778 2 0.527 3.0708822766182946 19.368049672736337 2.3800000000000003 
2335 779 1 -1.054 0.525 8.015 9.38 
2336 779 2 0.527 1.1108822766182949 8.771950327263662 9.38 
2337 779 2 0.527 1.1108822766182949 7.258049672736338 9.38 
2338 780 1 -1.054 11.41 32.550000000000004 19.005000000000003 
2339 780 2 0.527 11.995882276618294 33.306950327263664 19.005000000000003 
2340 780 2 0.527 11.995882276618294 31.79304967273634 19.005000000000003 
2341 781 1 -1.054 2.24 9.135 19.495 
2342 781 2 0.527 2.825882276618295 9.891950327263661 19.495 
2343 781 2 0.527 2.825882276618295 8.378049672736338 19.495 
2344 782 1 -1.054 1.4000000000000001 15.469999999999999 0.77 
2345 782 2 0.527 1.985882276618295 16.226950327263662 0.77 
2346 782 2 0.527 1.985882276618295 14.713049672736338 0.77 
2347 783 1 -1.054 9.485000000000001 21.490000000000002 6.194999999999999 
2348 783 2 0.527 10.070882276618295 22.24695032726366 6.194999999999999 
2349 783 2 0.527 10.070882276618295 20.73304967273634 6.194999999999999 
2350 784 1 -1.054 8.995 3.045 9.835 
2351 784 2 0.527 9.580882276618294 3.8019503272636612 9.835 
2352 784 2 0.527 9.580882276618294 2.2880496727363386 9.835 
2353 785 1 -1.054 14.07 22.155 28.035 
2354 785 2 0.527 14.655882276618295 22.91195032726366 28.035 
2355 785 2 0.527 14.655882276618295 21.398049672736338 28.035 
2356 786 1 -1.054 18.62 22.47 23.94 
2357 786 2 0.527 19.205882276618297 23.22695032726366 23.94 
2358 786 2 0.527 19.205882276618297 21.71304967273634 23.94 
2359 787 1 -1.054 9.38 27.510000000000005 2.45 
2360 787 2 0.527 9.965882276618295 28.266950327263665 2.45 
2361 787 2 0.527 9.965882276618295 26.753049672736342 2.45 
2362 788 1 -1.054 31.990000000000002 29.19 11.760000000000002 
2363 788 2 0.527 32.5758822766183 29.94695032726366 11.760000000000002 
2364 788 2 0.527 32.5758822766183 28.433049672736338 11.760000000000002 
2365 789 1 -1.054 31.22 12.214999999999998 18.935000000000002 
2366 789 2 0.527 31.805882276618295 12.97195032726366 18.935000000000002 
2367 789 2 0.527 31.805882276618295 11.458049672736337 18.935000000000002 
2368 790 1 -1.054 3.045 3.255 12.95 
2369 790 2 0.527 3.6308822766182947 4.011950327263661 12.95 
2370 790 2 0.527 3.6308822766182947 2.4980496727363386 12.95 
2371 791 1 -1.054 14.349999999999998 24.989999999999995 2.31 
2372 791 2 0.527 14.935882276618294 25.746950327263658 2.31 
2373 791 2 0.527 14.935882276618294 24.233049672736335 2.31 
2374 792 1 -1.054 32.13 32.34 11.655 
2375 792 2 0.527 32.715882276618295 33.09695032726366 11.655 
2376 792 2 0.527 32.715882276618295 31.583049672736337 11.655 
2377 793 1 -1.054 25.549999999999997 3.4650000000000003 25.095 
2378 793 2 0.527 26.135882276618293 4.221950327263661 25.095 
2379 793 2 0.527 26.135882276618293 2.708049672736339 25.095 
2380 794 1 -1.054 19.95 6.124999999999999 4.865 
2381 794 2 0.527 20.535882276618295 6.88195032726366 4.865 
2382 794 2 0.527 20.535882276618295 5.368049672736338 4.865 
2383 795 1 -1.054 3.955 14.035000000000002 29.924999999999997 
2384 795 2 0.527 4.540882276618295 14.791950327263663 29.924999999999997 
2385 795 2 0.527 4.540882276618295 13.27804967273634 29.924999999999997 
2386 796 1 -1.054 30.240000000000002 32.725 7.91 
2387 796 2 0.527 30.825882276618298 33.48195032726366 7.91 
2388 796 2 0.527 30.825882276618298 31.96804967273634 7.91 
2389 797 1 -1.054 18.900000000000002 23.730000000000004 17.99 
2390 797 2 0.527 19.485882276618295 24.486950327263663 17.99 
2391 797 2 0.527 19.485882276618295 22.97304967273634 17.99 
2392 798 1 -1.054 26.915 8.155 31.64 
2393 798 2 0.527 27.5008822766183 8.91195032726366 31.64 
2394 798 2 0.527 27.5008822766183 7.398049672736339 31.64 
2395 799 1 -1.054 15.435 16.45 18.48 
2396 799 2 0.527 16.020882276618295 17.206950327263662 18.48 
2397 799 2 0.527 16.020882276618295 15.69304967273634 18.48 
2398 800 1 -1.054 11.165000000000001 27.895000000000003 8.75 
2399 800 2 0.527 11.750882276618295 28.651950327263663 8.75 
2400 800 2 0.527 11.750882276618295 27.138049672736344 8.75 

Bonds

1 1 1 2 
2 1 1 3 
3 1 4 5 
4 1 4 6 
5 1 7 8 
6 1 7 9 
7 1 10 11 
8 1 10 12 
9 1 13 14 
10 1 13 15 
11 1 16 17 
12 1 16 18 
13 1 19 20 
14 1 19 21 
15 1 22 23 
16 1 22 24 
17 1 25 26 
18 1 25 27 
19 1 28 29 
20 1 28 30 
21 1 31 32 
22 1 31 33 
23 1 34 35 
24 1 34 36 
25 1 37 38 
26 1 37 39 
27 1 40 41 
28 1 40 42 
29 1 43 44 
30 1 43 45 
31 1 46 47 
32 1 46 48 
33 1 49 50 
34 1 49 51 
35 1 52 53 
36 1 52 54 
37 1 55 56 
38 1 55 57 
39 1 58 59 
40 1 58 60 
41 1 61 62 
42 1 61 63 
43 1 64 65 
44 1 64 66 
45 1 67 68 
46 1 67 69 
47 1 70 71 
48 1 70 72 
49 1 73 74 
50 1 73 75 
51 1 76 77 
52 1 76 78 
53 1 79 80 
54 1 79 81 
55 1 82 83 
56 1 82 84 
57 1 85 86 
58 1 85 87 
59 1 88 89 
60 1 88 90 
61 1 91 92 
62 1 91 93 
63 1 94 95 
64 1 94 96 
65 1 97 98 
66 1 97 99 
67 1 100 101 
68 1 100 102 
69 1 103 104 
70 1 103 105 
71 1 106 107 
72 1 106 108 
73 1 109 110 
74 1 109 111 
75 1 112 113 
76 1 112 114 
77 1 115 116 
78 1 115 117 
79 1 118 119 
80 1 118 120 
81 1 121 122 
82 1 121 123 
83 1 124 125 
84 1 124 126 
85 1 127 128 
86 1 127 129 
87 1 130 131 
88 1 130 132 
89 1 133 134 
90 1 133 135 
91 1 136 137 
92 1 136 138 
93 1 139 140 
94 1 139 141 
95 1 142 143 
96 1 142 144 
97 1 145 146 
98 1 145 147 
99 1 148 149 
100 1 148 150 
101 1 151 152 
102 1 151 153 
103 1 154 155 
104 1 154 156 
105 1 157 158 
106 1 157 159 
107 1 160 161 
108 1 160 162 
109 1 163 164 
110 1 163 165 
111 1 166 167 
112 1 166 168 
113 1 169 170 
114 1 169 171 
115 1 172 173 
116 1 172 174 
117 1 175 176 
118 1 175 177 
119 1 178 179 
120 1 178 180 
121 1 181 182 
122 1 181 183 
123 1 184 185 
124 1 184 186 
125 1 187 188 
126 1 187 189 
127 1 190 191 
128 1 190 192 
129 1 193 194 
130 1 193 195 
131 1 196 197 
132 1 196 198 
133 1 199 200 
134 1 199 201 
135 1 202 203 
136 1 202 204 
137 1 205 206 
138 1 205 207 
139 1 208 209 
140 1 208 210 
141 1 211 212 
142 1 211 213 
143 1 214 215 
144 1 214 216 
145 1 217 218 
146 1 217 219 
147 1 220 221 
148 1 220 222 
149 1 223 224 
150 1 223 225 
151 1 226 227 
152 1 226 228 
153 1 229 230 
154 1 229 231 
155 1 232 233 
156 1 232 234 
157 1 235 236 
158 1 235 237 
159 1 238 239 
160 1 238 240 
161 1 241 242 
162 1 241 243 
163 1 244 245 
164 1 244 246 
165 1 247 248 
166 1 247 249 
167 1 250 251 
168 1 250 252 
169 1 253 254 
170 1 253 255 
171 1 256 257 
172 1 256 258 
173 1 259 260 
174 1 259 261 
175 1 262 263 
176 1 262 264 
177 1 265 266 
178 1 265 267 
179 1 268 269 
180 1 268 270 
181 1 271 272 
182 1 271 273 
183 1 274 275 
184 1 274 276 
185 1 277 278 
186 1 277 279 
187 1 280 281 
188 1 280 282 
189 1 283 284 
190 1 283 285 
191 1 286 287 
192 1 286 288 
193 1 289 290 
194 1 289 291 
195 1 292 293 
196 1 292 294 
197 1 295 296 
198 1 295 297 
199 1 298 299 
200 1 298 300 
201 1 301 302 
202 1 301 303 
203 1 304 305 
204 1 304 306 
205 1 307 308 
206 1 307 309 
207 1 310 311 
208 1 310 312 
209 1 313 314 
210 1 313 315 
211 1 316 317 
212 1 316 318 
213 1 319 320 
214 1 319 321 
215 1 322 323 
216 1 322 324 
217 1 325 326 
218 1 325 327 
219 1 328 329 
220 1 328 330 
221 1 331 332 
222 1 331 333 
223 1 334 335 
224 1 334 336 
225 1 337 338 
226 1 337 339 
227 1 340 341 
228 1 340 342 
229 1 343 344 
230 1 343 345 
231 1 346 347 
232 1 346 348 
233 1 349 350 
234 1 349 351 
235 1 352 353 
236 1 352 354 
237 1 355 356 
238 1 355 357 
239 1 358 359 
240 1 358 360 
241 1 361 362 
242 1 361 363 
243 1 364 365 
244 1 364 366 
245 1 367 368 
246 1 367 369 
247 1 370 371 
248 1 370 372 
249 1 373 374 
250 1 373 375 
251 1 376 377 
252 1 376 378 
253 1 379 380 
254 1 379 381 
255 1 382 383 
256 1 382 384 
257 1 385 386 
258 1 385 387 
259 1 388 389 
260 1 388 390 
261 1 391 392 
262 1 391 393 
263 1 394 395 
264 1 394 396 
265 1 397 398 
266 1 397 399 
267 1 400 401 
268 1 400 402 
269 1 403 404 
270 1 403 405 
271 1 406 407 
272 1 406 408 
273 1 409 410 
274 1 409 411 
275 1 412 413 
276 1 412 414 
277 1 415 416 
278 1 415 417 
279 1 418 419 
280 1 418 420 
281 1 421 422 
282 1 421 423 
283 1 424 425 
284 1 424 426 
285 1 427 428 
286 1 427 429 
287 1 430 431 
288 1 430 432 
289 1 433 434 
290 1 433 435 
291 1 436 437 
292 1 436 438 
293 1 439 440 
294 1 439 441 
295 1 442 443 
296 1 442 444 
297 1 445 446 
298 1 445 447 
299 1 448 449 
300 1 448 450 
301 1 451 452 
302 1 451 453 
303 1 454 455 
304 1 454 456 
305 1 457 458 
306 1 457 459 
307 1 460 461 
308 1 460 462 
309 1 463 464 
310 1 463 465 
311 1 466 467 
312 1 466 468 
313 1 469 470 
314 1 469 471 
315 1 472 473 
316 1 472 474 
317 1 475 476 
318 1 475 477 
319 1 478 479 
320 1 478 480 
321 1 481 482 
322 1 481 483 
323 1 484 485 
324 1 484 486 
325 1 487 488 
326 1 487 489 
327 1 490 491 
328 1 490 492 
329 1 493 494 
330 1 493 495 
331 1 496 497 
332 1 496 498 
333 1 499 500 
334 1 499 501 
335 1 502 503 
336 1 502 504 
337 1 505 506 
338 1 505 507 
339 1 508 509 
340 1 508 510 
341 1 511 512 
342 1 511 513 
343 1 514 515 
344 1 514 516 
345 1 517 518 
346 1 517 519 
347 1 520 521 
348 1 520 522 
349 1 523 524 
350 1 523 525 
351 1 526 527 
352 1 526 528 
353 1 529 530 
354 1 529 531 
355 1 532 533 
356 1 532 534 
357 1 535 536 
358 1 535 537 
359 1 538 539 
360 1 538 540 
361 1 541 542 
362 1 541 543 
363 1 544 545 
364 1 544 546 
365 1 547 548 
366 1 547 549 
367 1 550 551 
368 1 550 552 
369 1 553 554 
370 1 553 555 
371 1 556 557 
372 1 556 558 
373 1 559 560 
374 1 559 561 
375 1 562 563 
376 1 562 564 
377 1 565 566 
378 1 565 567 
379 1 568 569 
380 1 568 570 
381 1 571 572 
382 1 571 573 
383 1 574 575 
384 1 574 576 
385 1 577 578 
386 1 577 579 
387 1 580 581 
388 1 580 582 
389 1 583 584 
390 1 583 585 
391 1 586 587 
392 1 586 588 
393 1 589 590 
394 1 589 591 
395 1 592 593 
396 1 592 594 
397 1 595 596 
398 1 595 597 
399 1 598 599 
400 1 598 600 
401 1 601 602 
402 1 601 603 
403 1 604 605 
404 1 604 606 
405 1 607 608 
406 1 607 609 
407 1 610 611 
408 1 610 612 
409 1 613 614 
410 1 613 615 
411 1 616 617 
412 1 616 618 
413 1 619 620 
414 1 619 621 
415 1 622 623 
416 1 622 624 
417 1 625 626 
418 1 625 627 
419 1 628 629 
420 1 628 630 
421 1 631 632 
422 1 631 633 
423 1 634 635 
424 1 634 636 
425 1 637 638 
426 1 637 639 
427 1 640 641 
428 1 640 642 
429 1 643 644 
430 1 643 645 
431 1 646 647 
432 1 646 648 
433 1 649 650 
434 1 649 651 
435 1 652 653 
436 1 652 654 
437 1 655 656 
438 1 655 657 
439 1 658 659 
440 1 658 660 
441 1 661 662 
442 1 661 663 
443 1 664 665 
444 1 664 666 
445 1 667 668 
446 1 667 669 
447 1 670 671 
448 1 670 672 
449 1 673 674 
450 1 673 675 
451 1 676 677 
452 1 676 678 
453 1 679 680 
454 1 679 681 
455 1 682 683 
456 1 682 684 
457 1 685 686 
458 1 685 687 
459 1 688 689 
460 1 688 690 
461 1 691 692 
462 1 691 693 
463 1 694 695 
464 1 694 696 
465 1 697 698 
466 1 697 699 
467 1 700 701 
468 1 700 702 
469 1 703 704 
470 1 703 705 
471 1 706 707 
472 1 706 708 
473 1 709 710 
474 1 709 711 
475 1 712 713 
476 1 712 714 
477 1 715 716 
478 1 715 717 
479 1 718 719 
480 1 718 720 
481 1 721 722 
482 1 721 723 
483 1 724 725 
484 1 724 726 
485 1 727 728 
486 1 727 729 
487 1 730 731 
488 1 730 732 
489 1 733 734 
490 1 733 735 
491 1 736 737 
492 1 736 738 
493 1 739 740 
494 1 739 741 
495 1 742 743 
496 1 742 744 
497 1 745 746 
498 1 745 747 
499 1 748 749 
500 1 748 750 
501 1 751 752 
502 1 751 753 
503 1 754 755 
504 1 754 756 
505 1 757 758 
506 1 757 759 
507 1 760 761 
508 1 760 762 
509 1 763 764 
510 1 763 765 
511 1 766 767 
512 1 766 768 
513 1 769 770 
514 1 769 771 
515 1 772 773 
516 1 772 774 
517 1 775 776 
518 1 775 777 
519 1 778 779 
520 1 778 780 
521 1 781 782 
522 1 781 783 
523 1 784 785 
524 1 784 786 
525 1 787 788 
526 1 787 789 
527 1 790 791 
528 1 790 792 
529 1 793 794 
530 1 793 795 
531 1 796 797 
532 1 796 798 
533 1 799 800 
534 1 799 801 
535 1 802 803 
536 1 802 804 
537 1 805 806 
538 1 805 807 
539 1 808 809 
540 1 808 810 
541 1 811 812 
542 1 811 813 
543 1 814 815 
544 1 814 816 
545 1 817 818 
546 1 817 819 
547 1 820 821 
548 1 820 822 
549 1 823 824 
550 1 823 825 
551 1 826 827 
552 1 826 828 
553 1 829 830 
554 1 829 831 
555 1 832 833 
556 1 832 834 
557 1 835 836 
558 1 835 837 
559 1 838 839 
560 1 838 840 
561 1 841 842 
562 1 841 843 
563 1 844 845 
564 1 844 846 
565 1 847 848 
566 1 847 849 
567 1 850 851 
568 1 850 852 
569 1 853 854 
570 1 853 855 
571 1 856 857 
572 1 856 858 
573 1 859 860 
574 1 859 861 
575 1 862 863 
576 1 862 864 
577 1 865 866 
578 1 865 867 
579 1 868 869 
580 1 868 870 
581 1 871 872 
582 1 871 873 
583 1 874 875 
584 1 874 876 
585 1 877 878 
586 1 877 879 
587 1 880 881 
588 1 880 882 
589 1 883 884 
590 1 883 885 
591 1 886 887 
592 1 886 888 
593 1 889 890 
594 1 889 891 
595 1 892 893 
596 1 892 894 
597 1 895 896 
598 1 895 897 
599 1 898 899 
600 1 898 900 
601 1 901 902 
602 1 901 903 
603 1 904 905 
604 1 904 906 
605 1 907 908 
606 1 907 909 
607 1 910 911 
608 1 910 912 
609 1 913 914 
610 1 913 915 
611 1 916 917 
612 1 916 918 
613 1 919 920 
614 1 919 921 
615 1 922 923 
616 1 922 924 
617 1 925 926 
618 1 925 927 
619 1 928 929 
620 1 928 930 
621 1 931 932 
622 1 931 933 
623 1 934 935 
624 1 934 936 
625 1 937 938 
626 1 937 939 
627 1 940 941 
628 1 940 942 
629 1 943 944 
630 1 943 945 
631 1 946 947 
632 1 946 948 
633 1 949 950 
634 1 949 951 
635 1 952 953 
636 1 952 954 
637 1 955 956 
638 1 955 957 
639 1 958 959 
640 1 958 960 
641 1 961 962 
642 1 961 963 
643 1 964 965 
644 1 964 966 
645 1 967 968 
646 1 967 969 
647 1 970 971 
648 1 970 972 
649 1 973 974 
650 1 973 975 
651 1 976 977 
652 1 976 978 
653 1 979 980 
654 1 979 981 
655 1 982 983 
656 1 982 984 
657 1 985 986 
658 1 985 987 
659 1 988 989 
660 1 988 990 
661 1 991 992 
662 1 991 993 
663 1 994 995 
664 1 994 996 
665 1 997 998 
666 1 997 999 
667 1 1000 1001 
668 1 1000 1002 
669 1 1003 1004 
670 1 1003 1005 
671 1 1006 1007 
672 1 1006 1008 
673 1 1009 1010 
674 1 1009 1011 
675 1 1012 1013 
676 1 1012 1014 
677 1 1015 1016 
678 1 1015 1017 
679 1 1018 1019 
680 1 1018 1020 
681 1 1021 1022 
682 1 1021 1023 
683 1 1024 1025 
684 1 1024 1026 
685 1 1027 1028 
686 1 1027 1029 
687 1 1030 1031 
688 1 1030 1032 
689 1 1033 1034 
690 1 1033 1035 
691 1 1036 1037 
692 1 1036 1038 
693 1 1039 1040 
694 1 1039 1041 
695 1 1042 1043 
696 1 1042 1044 
697 1 1045 1046 
698 1 1045 1047 
699 1 1048 1049 
700 1 1048 1050 
701 1 1051 1052 
702 1 1051 1053 
703 1 1054 1055 
704 1 1054 1056 
705 1 1057 1058 
706 1 1057 1059 
707 1 1060 1061 
708 1 1060 1062 
709 1 1063 1064 
710 1 1063 1065 
711 1 1066 1067 
712 1 1066 1068 
713 1 1069 1070 
714 1 1069 1071 
715 1 1072 1073 
716 1 1072 1074 
717 1 1075 1076 
718 1 1075 1077 
719 1 1078 1079 
720 1 1078 1080 
721 1 1081 1082 
722 1 1081 1083 
723 1 1084 1085 
724 1 1084 1086 
725 1 1087 1088 
726 1 1087 1089 
727 1 1090 1091 
728 1 1090 1092 
729 1 1093 1094 
730 1 1093 1095 
731 1 1096 1097 
732 1 1096 1098 
733 1 1099 1100 
734 1 1099 1101 
735 1 1102 1103 
736 1 1102 1104 
737 1 1105 1106 
738 1 1105 1107 
739 1 1108 1109 
740 1 1108 1110 
741 1 1111 1112 
742 1 1111 1113 
743 1 1114 1115 
744 1 1114 1116 
745 1 1117 1118 
746 1 1117 1119 
747 1 1120 1121 
748 1 1120 1122 
749 1 1123 1124 
750 1 1123 1125 
751 1 1126 1127 
752 1 1126 1128 
753 1 1129 1130 
754 1 1129 1131 
755 1 1132 1133 
756 1 1132 1134 
757 1 1135 1136 
758 1 1135 1137 
759 1 1138 1139 
760 1 1138 1140 
761 1 1141 1142 
762 1 1141 1143 
763 1 1144 1145 
764 1 1144 1146 
765 1 1147 1148 
766 1 1147 1149 
767 1 1150 1151 
768 1 1150 1152 
769 1 1153 1154 
770 1 1153 1155 
771 1 1156 1157 
772 1 1156 1158 
773 1 1159 1160 
774 1 1159 1161 
775 1 1162 1163 
776 1 1162 1164 
777 1 1165 1166 
778 1 1165 1167 
779 1 1168 1169 
780 1 1168 1170 
781 1 1171 1172 
782 1 1171 1173 
783 1 1174 1175 
784 1 1174 1176 
785 1 1177 1178 
786 1 1177 1179 
787 1 1180 1181 
788 1 1180 1182 
789 1 1183 1184 
790 1 1183 1185 
791 1 1186 1187 
792 1 1186 1188 
793 1 1189 1190 
794 1 1189 1191 
795 1 1192 1193 
796 1 1192 1194 
797 1 1195 1196 
798 1 1195 1197 
799 1 1198 1199 
800 1 1198 1200 
801 1 1201 1202 
802 1 1201 1203 
803 1 1204 1205 
804 1 1204 1206 
805 1 1207 1208 
806 1 1207 1209 
807 1 1210 1211 
808 1 1210 1212 
809 1 1213 1214 
810 1 1213 1215 
811 1 1216 1217 
812 1 1216 1218 
813 1 1219 1220 
814 1 1219 1221 
815 1 1222 1223 
816 1 1222 1224 
817 1 1225 1226 
818 1 1225 1227 
819 1 1228 1229 
820 1 1228 1230 
821 1 1231 1232 
822 1 1231 1233 
823 1 1234 1235 
824 1 1234 1236 
825 1 1237 1238 
826 1 1237 1239 
827 1 1240 1241 
828 1 1240 1242 
829 1 1243 1244 
830 1 1243 1245 
831 1 1246 1247 
832 1 1246 1248 
833 1 1249 1250 
834 1 1249 1251 
835 1 1252 1253 
836 1 1252 1254 
837 1 1255 1256 
838 1 1255 1257 
839 1 1258 1259 
840 1 1258 1260 
841 1 1261 1262 
842 1 1261 1263 
843 1 1264 1265 
844 1 1264 1266 
845 1 1267 1268 
846 1 1267 1269 
847 1 1270 1271 
848 1 1270 1272 
849 1 1273 1274 
850 1 1273 1275 
851 1 1276 1277 
852 1 1276 1278 
853 1 1279 1280 
854 1 1279 1281 
855 1 1282 1283 
856 1 1282 1284 
857 1 1285 1286 
858 1 1285 1287 
859 1 1288 1289 
860 1 1288 1290 
861 1 1291 1292 
862 1 1291 1293 
863 1 1294 1295 
864 1 1294 1296 
865 1 1297 1298 
866 1 1297 1299 
867 1 1300 1301 
868 1 1300 1302 
869 1 1303 1304 
870 1 1303 1305 
871 1 1306 1307 
872 1 1306 1308 
873 1 1309 1310 
874 1 1309 1311 
875 1 1312 1313 
876 1 1312 1314 
877 1 1315 1316 
878 1 1315 1317 
879 1 1318 1319 
880 1 1318 1320 
881 1 1321 1322 
882 1 1321 1323 
883 1 1324 1325 
884 1 1324 1326 
885 1 1327 1328 
886 1 1327 1329 
887 1 1330 1331 
888 1 1330 1332 
889 1 1333 1334 
890 1 1333 1335 
891 1 1336 1337 
892 1 1336 1338 
893 1 1339 1340 
894 1 1339 1341 
895 1 1342 1343 
896 1 1342 1344 
897 1 1345 1346 
898 1 1345 1347 
899 1 1348 1349 
900 1 1348 1350 
901 1 1351 1352 
902 1 1351 1353 
903 1 1354 1355 
904 1 1354 1356 
905 1 1357 1358 
906 1 1357 1359 
907 1 1360 1361 
908 1 1360 1362 
909 1 1363 1364 
910 1 1363 1365 
911 1 1366 1367 
912 1 1366 1368 
913 1 1369 1370 
914 1 1369 1371 
915 1 1372 1373 
916 1 1372 1374 
917 1 1375 1376 
918 1 1375 1377 
919 1 1378 1379 
920 1 1378 1380 
921 1 1381 1382 
922 1 1381 1383 
923 1 1384 1385 
924 1 1384 1386 
925 1 1387 1388 
926 1 1387 1389 
927 1 1390 1391 
928 1 1390 1392 
929 1 1393 1394 
930 1 1393 1395 
931 1 1396 1397 
932 1 1396 1398 
933 1 1399 1400 
934 1 1399 1401 
935 1 1402 1403 
936 1 1402 1404 
937 1 1405 1406 
938 1 1405 1407 
939 1 1408 1409 
940 1 1408 1410 
941 1 1411 1412 
942 1 1411 1413 
943 1 1414 1415 
944 1 1414 1416 
945 1 1417 1418 
946 1 1417 1419 
947 1 1420 1421 
948 1 1420 1422 
949 1 1423 1424 
950 1 1423 1425 
951 1 1426 1427 
952 1 1426 1428 
953 1 1429 1430 
954 1 1429 1431 
955 1 1432 1433 
956 1 1432 1434 
957 1 1435 1436 
958 1 1435 1437 
959 1 1438 1439 
960 1 1438 1440 
961 1 1441 1442 
962 1 1441 1443 
963 1 1444 1445 
964 1 1444 1446 
965 1 1447 1448 
966 1 1447 1449 
967 1 1450 1451 
968 1 1450 1452 
969 1 1453 1454 
970 1 1453 1455 
971 1 1456 1457 
972 1 1456 1458 
973 1 1459 1460 
974 1 1459 1461 
975 1 1462 1463 
976 1 1462 1464 
977 1 1465 1466 
978 1 1465 1467 
979 1 1468 1469 
980 1 1468 1470 
981 1 1471 1472 
982 1 1471 1473 
983 1 1474 1475 
984 1 1474 1476 
985 1 1477 1478 
986 1 1477 1479 
987 1 1480 1481 
988 1 1480 1482 
989 1 1483 1484 
990 1 1483 1485 
991 1 1486 1487 
992 1 1486 1488 
993 1 1489 1490 
994 1 1489 1491 
995 1 1492 1493 
996 1 1492 1494 
997 1 1495 1496 
998 1 1495 1497 
999 1 1498 1499 
1000 1 1498 1500 
1001 1 1501 1502 
1002 1 1501 1503 
1003 1 1504 1505 
1004 1 1504 1506 
1005 1 1507 1508 
1006 1 1507 1509 
1007 1 1510 1511 
1008 1 1510 1512 
1009 1 1513 1514 
1010 1 1513 1515 
1011 1 1516 1517 
1012 1 1516 1518 
1013 1 1519 1520 
1014 1 1519 1521 
1015 1 1522 1523 
1016 1 1522 1524 
1017 1 1525 1526 
1018 1 1525 1527 
1019 1 1528 1529 
1020 1 1528 1530 
1021 1 1531 1532 
1022 1 1531 1533 
1023 1 1534 1535 
1024 1 1534 1536 
1025 1 1537 1538 
1026 1 1537 1539 
1027 1 1540 1541 
1028 1 1540 1542 
1029 1 1543 1544 
1030 1 1543 1545 
1031 1 1546 1547 
1032 1 1546 1548 
1033 1 1549 1550 
1034 1 1549 1551 
1035 1 1552 1553 
1036 1 1552 1554 
1037 1 1555 1556 
1038 1 1555 1557 
1039 1 1558 1559 
1040 1 1558 1560 
1041 1 1561 1562 
1042 1 1561 1563 
1043 1 1564 1565 
1044 1 1564 1566 
1045 1 1567 1568 
1046 1 1567 1569 
1047 1 1570 1571 
1048 1 1570 1572 
1049 1 1573 1574 
1050 1 1573 1575 
1051 1 1576 1577 
1052 1 1576 1578 
1053 1 1579 1580 
1054 1 1579 1581 
1055 1 1582 1583 
1056 1 1582 1584 
1057 1 1585 1586 
1058 1 1585 1587 
1059 1 1588 1589 
1060 1 1588 1590 
1061 1 1591 1592 
1062 1 1591 1593 
1063 1 1594 1595 
1064 1 1594 1596 
1065 1 1597 1598 
1066 1 1597 1599 
1067 1 1600 1601 
1068 1 1600 1602 
1069 1 1603 1604 
1070 1 1603 1605 
1071 1 1606 1607 
1072 1 1606 1608 
1073 1 1609 1610 
1074 1 1609 1611 
1075 1 1612 1613 
1076 1 1612 1614 
1077 1 1615 1616 
1078 1 1615 1617 
1079 1 1618 1619 
1080 1 1618 1620 
1081 1 1621 1622 
1082 1 1621 1623 
1083 1 1624 1625 
1084 1 1624 1626 
1085 1 1627 1628 
1086 1 1627 1629 
1087 1 1630 1631 
1088 1 1630 1632 
1089 1 1633 1634 
1090 1 1633 1635 
1091 1 1636 1637 
1092 1 1636 1638 
1093 1 1639 1640 
1094 1 1639 1641 
1095 1 1642 1643 
1096 1 1642 1644 
1097 1 1645 1646 
1098 1 1645 1647 
1099 1 1648 1649 
1100 1 1648 1650 
1101 1 1651 1652 
1102 1 1651 1653 
1103 1 1654 1655 
1104 1 1654 1656 
1105 1 1657 1658 
1106 1 1657 1659 
1107 1 1660 1661 
1108 1 1660 1662 
1109 1 1663 1664 
1110 1 1663 1665 
1111 1 1666 1667 
1112 1 1666 1668 
1113 1 1669 1670 
1114 1 1669 1671 
1115 1 1672 1673 
1116 1 1672 1674 
1117 1 1675 1676 
1118 1 1675 1677 
1119 1 1678 1679 
1120 1 1678 1680 
1121 1 1681 1682 
1122 1 1681 1683 
1123 1 1684 1685 
1124 1 1684 1686 
1125 1 1687 1688 
1126 1 1687 1689 
1127 1 1690 1691 
1128 1 1690 1692 
1129 1 1693 1694 
1130 1 1693 1695 
1131 1 1696 1697 
1132 1 1696 1698 
1133 1 1699 1700 
1134 1 1699 1701 
1135 1 1702 1703 
1136 1 1702 1704 
1137 1 1705 1706 
1138 1 1705 1707 
1139 1 1708 1709 
1140 1 1708 1710 
1141 1 1711 1712 
1142 1 1711 1713 
1143 1 1714 1715 
1144 1 1714 1716 
1145 1 1717 1718 
1146 1 1717 1719 
1147 1 1720 1721 
1148 1 1720 1722 
1149 1 1723 1724 
1150 1 1723 1725 
1151 1 1726 1727 
1152 1 1726 1728 
1153 1 1729 1730 
1154 1 1729 1731 
1155 1 1732 1733 
1156 1 1732 1734 
1157 1 1735 1736 
1158 1 1735 1737 
1159 1 1738 1739 
1160 1 1738 1740 
1161 1 1741 1742 
1162 1 1741 1743 
1163 1 1744 1745 
1164 1 1744 1746 
1165 1 1747 1748 
1166 1 1747 1749 
1167 1 1750 1751 
1168 1 1750 1752 
1169 1 1753 1754 
1170 1 1753 1755 
1171 1 1756 1757 
1172 1 1756 1758 
1173 1 1759 1760 
1174 1 1759 1761 
1175 1 1762 1763 
1176 1 1762 1764 
1177 1 1765 1766 
1178 1 1765 1767 
1179 1 1768 1769 
1180 1 1768 1770 
1181 1 1771 1772 
1182 1 1771 1773 
1183 1 1774 1775 
1184 1 1774 1776 
1185 1 1777 1778 
1186 1 1777 1779 
1187 1 1780 1781 
1188 1 1780 1782 
1189 1 1783 1784 
1190 1 1783 1785 
1191 1 1786 1787 
1192 1 1786 1788 
1193 1 1789 1790 
1194 1 1789 1791 
1195 1 1792 1793 
1196 1 1792 1794 
1197 1 1795 1796 
1198 1 1795 1797 
1199 1 1798 1799 
1200 1 1798 1800 
1201 1 1801 1802 
1202 1 1801 1803 
1203 1 1804 1805 
1204 1 1804 1806 
1205 1 1807 1808 
1206 1 1807 1809 
1207 1 1810 1811 
1208 1 1810 1812 
1209 1 1813 1814 
1210 1 1813 1815 
1211 1 1816 1817 
1212 1 1816 1818 
1213 1 1819 1820 
1214 1 1819 1821 
1215 1 1822 1823 
1216 1 1822 1824 
1217 1 1825 1826 
1218 1 1825 1827 
1219 1 1828 1829 
1220 1 1828 1830 
1221 1 1831 1832 
1222 1 1831 1833 
1223 1 1834 1835 
1224 1 1834 1836 
1225 1 1837 1838 
1226 1 1837 1839 
1227 1 1840 1841 
1228 1 1840 1842 
1229 1 1843 1844 
1230 1 1843 1845 
1231 1 1846 1847 
1232 1 1846 1848 
1233 1 1849 1850 
1234 1 1849 1851 
1235 1 1852 1853 
1236 1 1852 1854 
1237 1 1855 1856 
1238 1 1855 1857 
1239 1 1858 1859 
1240 1 1858 1860 
1241 1 1861 1862 
1242 1 1861 1863 
1243 1 1864 1865 
1244 1 1864 1866 
1245 1 1867 1868 
1246 1 1867 1869 
1247 1 1870 1871 
1248 1 1870 1872 
1249 1 1873 1874 
1250 1 1873 1875 
1251 1 1876 1877 
1252 1 1876 1878 
1253 1 1879 1880 
1254 1 1879 1881 
1255 1 1882 1883 
1256 1 1882 1884 
1257 1 1885 1886 
1258 1 1885 1887 
1259 1 1888 1889 
1260 1 1888 1890 
1261 1 1891 1892 
1262 1 1891 1893 
1263 1 1894 1895 
1264 1 1894 1896 
1265 1 1897 1898 
1266 1 1897 1899 
1267 1 1900 1901 
1268 1 1900 1902 
1269 1 1903 1904 
1270 1 1903 1905 
1271 1 1906 1907 
1272 1 1906 1908 
1273 1 1909 1910 
1274 1 1909 1911 
1275 1 1912 1913 
1276 1 1912 1914 
1277 1 1915 1916 
1278 1 1915 1917 
1279 1 1918 1919 
1280 1 1918 1920 
1281 1 1921 1922 
1282 1 1921 1923 
1283 1 1924 1925 
1284 1 1924 1926 
1285 1 1927 1928 
1286 1 1927 1929 
1287 1 1930 1931 
1288 1 1930 1932 
1289 1 1933 1934 
1290 1 1933 1935 
1291 1 1936 1937 
1292 1 1936 1938 
1293 1 1939 1940 
1294 1 1939 1941 
1295 1 1942 1943 
1296 1 1942 1944 
1297 1 1945 1946 
1298 1 1945 1947 
1299 1 1948 1949 
1300 1 1948 1950 
1301 1 1951 1952 
1302 1 1951 1953 
1303 1 1954 1955 
1304 1 1954 1956 
1305 1 1957 1958 
1306 1 1957 1959 
1307 1 1960 1961 
1308 1 1960 1962 
1309 1 1963 1964 
1310 1 1963 1965 
1311 1 1966 1967 
1312 1 1966 1968 
1313 1 1969 1970 
1314 1 1969 1971 
1315 1 1972 1973 
1316 1 1972 1974 
1317 1 1975 1976 
1318 1 1975 1977 
1319 1 1978 1979 
1320 1 1978 1980 
1321 1 1981 1982 
1322 1 1981 1983 
1323 1 1984 1985 
1324 1 1984 1986 
1325 1 1987 1988 
1326 1 1987 1989 
1327 1 1990 1991 
1328 1 1990 1992 
1329 1 1993 1994 
1330 1 1993 1995 
1331 1 1996 1997 
1332 1 1996 1998 
1333 1 1999 2000 
1334 1 1999 2001 
1335 1 2002 2003 
1336 1 2002 2004 
1337 1 2005 2006 
1338 1 2005 2007 
1339 1 2008 2009 
1340 1 2008 2010 
1341 1 2011 2012 
1342 1 2011 2013 
1343 1 2014 2015 
1344 1 2014 2016 
1345 1 2017 2018 
1346 1 2017 2019 
1347 1 2020 2021 
1348 1 2020 2022 
1349 1 2023 2024 
1350 1 2023 2025 
1351 1 2026 2027 
1352 1 2026 2028 
1353 1 2029 2030 
1354 1 2029 2031 
1355 1 2032 2033 
1356 1 2032 2034 
1357 1 2035 2036 
1358 1 2035 2037 
1359 1 2038 2039 
1360 1 2038 2040 
1361 1 2041 2042 
1362 1 2041 2043 
1363 1 2044 2045 
1364 1 2044 2046 
1365 1 2047 2048 
1366 1 2047 2049 
1367 1 2050 2051 
1368 1 2050 2052 
1369 1 2053 2054 
1370 1 2053 2055 
1371 1 2056 2057 
1372 1 2056 2058 
1373 1 2059 2060 
1374 1 2059 2061 
1375 1 2062 2063 
1376 1 2062 2064 
1377 1 2065 2066 
1378 1 2065 2067 
1379 1 2068 2069 
1380 1 2068 2070 
1381 1 2071 2072 
1382 1 2071 2073 
1383 1 2074 2075 
1384 1 2074 2076 
1385 1 2077 2078 
1386 1 2077 2079 
1387 1 2080 2081 
1388 1 2080 2082 
1389 1 2083 2084 
1390 1 2083 2085 
1391 1 2086 2087 
1392 1 2086 2088 
1393 1 2089 2090 
1394 1 2089 2091 
1395 1 2092 2093 
1396 1 2092 2094 
1397 1 2095 2096 
1398 1 2095 2097 
1399 1 2098 2099 
1400 1 2098 2100 
1401 1 2101 2102 
1402 1 2101 2103 
1403 1 2104 2105 
1404 1 2104 2106 
1405 1 2107 2108 
1406 1 2107 2109 
1407 1 2110 2111 
1408 1 2110 2112 
1409 1 2113 2114 
1410 1 2113 2115 
1411 1 2116 2117 
1412 1 2116 2118 
1413 1 2119 2120 
1414 1 2119 2121 
1415 1 2122 2123 
1416 1 2122 2124 
1417 1 2125 2126 
1418 1 2125 2127 
1419 1 2128 2129 
1420 1 2128 2130 
1421 1 2131 2132 
1422 1 2131 2133 
1423 1 2134 2135 
1424 1 2134 2136 
1425 1 2137 2138 
1426 1 2137 2139 
1427 1 2140 2141 
1428 1 2140 2142 
1429 1 2143 2144 
1430 1 2143 2145 
1431 1 2146 2147 
1432 1 2146 2148 
1433 1 2149 2150 
1434 1 2149 2151 
1435 1 2152 2153 
1436 1 2152 2154 
1437 1 2155 2156 
1438 1 2155 2157 
1439 1 2158 2159 
1440 1 2158 2160 
1441 1 2161 2162 
1442 1 2161 2163 
1443 1 2164 2165 
1444 1 2164 2166 
1445 1 2167 2168 
1446 1 2167 2169 
1447 1 2170 2171 
1448 1 2170 2172 
1449 1 2173 2174 
1450 1 2173 2175 
1451 1 2176 2177 
1452 1 2176 2178 
1453 1 2179 2180 
1454 1 2179 2181 
1455 1 2182 2183 
1456 1 2182 2184 
1457 1 2185 2186 
1458 1 2185 2187 
1459 1 2188 2189 
1460 1 2188 2190 
1461 1 2191 2192 
1462 1 2191 2193 
1463 1 2194 2195 
1464 1 2194 2196 
1465 1 2197 2198 
1466 1 2197 2199 
1467 1 2200 2201 
1468 1 2200 2202 
1469 1 2203 2204 
1470 1 2203 2205 
1471 1 2206 2207 
1472 1 2206 2208 
1473 1 2209 2210 
1474 1 2209 2211 
1475 1 2212 2213 
1476 1 2212 2214 
1477 1 2215 2216 
1478 1 2215 2217 
1479 1 2218 2219 
1480 1 2218 2220 
1481 1 2221 2222 
1482 1 2221 2223 
1483 1 2224 2225 
1484 1 2224 2226 
1485 1 2227 2228 
1486 1 2227 2229 
1487 1 2230 2231 
1488 1 2230 2232 
1489 1 2233 2234 
1490 1 2233 2235 
1491 1 2236 2237 
1492 1 2236 2238 
1493 1 2239 2240 
1494 1 2239 2241 
1495 1 2242 2243 
1496 1 2242 2244 
1497 1 2245 2246 
1498 1 2245 2247 
1499 1 2248 2249 
1500 1 2248 2250 
1501 1 2251 2252 
1502 1 2251 2253 
1503 1 2254 2255 
1504 1 2254 2256 
1505 1 2257 2258 
1506 1 2257 2259 
1507 1 2260 2261 
1508 1 2260 2262 
1509 1 2263 2264 
1510 1 2263 2265 
1511 1 2266 2267 
1512 1 2266 2268 
1513 1 2269 2270 
1514 1 2269 2271 
1515 1 2272 2273 
1516 1 2272 2274 
1517 1 2275 2276 
1518 1 2275 2277 
1519 1 2278 2279 
1520 1 2278 2280 
1521 1 2281 2282 
1522 1 2281 2283 
1523 1 2284 2285 
1524 1 2284 2286 
1525 1 2287 2288 
1526 1 2287 2289 
1527 1 2290 2291 
1528 1 2290 2292 
1529 1 2293 2294 
1530 1 2293 2295 
1531 1 2296 2297 
1532 1 2296 2298 
1533 1 2299 2300 
1534 1 2299 2301 
1535 1 2302 2303 
1536 1 2302 2304 
1537 1 2305 2306 
1538 1 2305 2307 
1539 1 2308 2309 
1540 1 2308 2310 
1541 1 2311 2312 
1542 1 2311 2313 
1543 1 2314 2315 
1544 1 2314 2316 
1545 1 2317 2318 
1546 1 2317 2319 
1547 1 2320 2321 
1548 1 2320 2322 
1549 1 2323 2324 
1550 1 2323 2325 
1551 1 2326 2327 
1552 1 2326 2328 
1553 1 2329 2330 
1554 1 2329 2331 
1555 1 2332 2333 
1556 1 2332 2334 
1557 1 2335 2336 
1558 1 2335 2337 
1559 1 2338 2339 
1560 1 2338 2340 
1561 1 2341 2342 
1562 1 2341 2343 
1563 1 2344 2345 
1564 1 2344 2346 
1565 1 2347 2348 
1566 1 2347 2349 
1567 1 2350 2351 
1568 1 2350 2352 
1569 1 2353 2354 
1570 1 2353 2355 
1571 1 2356 2357 
1572 1 2356 2358 
1573 1 2359 2360 
1574 1 2359 2361 
1575 1 2362 2363 
1576 1 2362 2364 
1577 1 2365 2366 
1578 1 2365 2367 
1579 1 2368 2369 
1580 1 2368 2370 
1581 1 2371 2372 
1582 1 2371 2373 
1583 1 2374 2375 
1584 1 2374 2376 
1585 1 2377 2378 
1586 1 2377 2379 
1587 1 2380 2381 
1588 1 2380 2382 
1589 1 2383 2384 
1590 1 2383 2385 
1591 1 2386 2387 
1592 1 2386 2388 
1593 1 2389 2390 
1594 1 2389 2391 
1595 1 2392 2393 
1596 1 2392 2394 
1597 1 2395 2396 
1598 1 2395 2397 
1599 1 2398 2399 
1600 1 2398 2400 

Angles

1 1 2 1 3 
2 1 5 4 6 
3 1 8 7 9 
4 1 11 10 12 
5 1 14 13 15 
6 1 17 16 18 
7 1 20 19 21 
8 1 23 22 24 
9 1 26 25 27 
10 1 29 28 30 
11 1 32 31 33 
12 1 35 34 36 
13 1 38 37 39 
14 1 41 40 42 
15 1 44 43 45 
16 1 47 46 48 
17 1 50 49 51 
18 1 53 52 54 
19 1 56 55 57 
20 1 59 58 60 
21 1 62 61 63 
22 1 65 64 66 
23 1 68 67 69 
24 1 71 70 72 
25 1 74 73 75 
26 1 77 76 78 
27 1 80 79 81 
28 1 83 82 84 
29 1 86 85 87 
30 1 89 88 90 
31 1 92 91 93 
32 1 95 94 96 
33 1 98 97 99 
34 1 101 100 102 
35 1 104 103 105 
36 1 107 106 108 
37 1 110 109 111 
38 1 113 112 114 
39 1 116 115 117 
40 1 119 118 120 
41 1 122 121 123 
42 1 125 124 126 
43 1 128 127 129 
44 1 131 130 132 
45 1 134 133 135 
46 1 137 136 138 
47 1 140 139 141 
48 1 143 142 144 
49 1 146 145 147 
50 1 149 148 150 
51 1 152 151 153 
52 1 155 154 156 
53 1 158 157 159 
54 1 161 160 162 
55 1 164 163 165 
56 1 167 166 168 
57 1 170 169 171 
58 1 173 172 174 
59 1 176 175 177 
60 1 179 178 180 
61 1 182 181 183 
62 1 185 184 186 
63 1 188 187 189 
64 1 191 190 192 
65 1 194 193 195 
66 1 197 196 198 
67 1 200 199 201 
68 1 203 202 204 
69 1 206 205 207 
70 1 209 208 210 
71 1 212 211 213 
72 1 215 214 216 
73 1 218 217 219 
74 1 221 220 222 
75 1 224 223 225 
76 1 227 226 228 
77 1 230 229 231 
78 1 233 232 234 
79 1 236 235 237 
80 1 239 238 240 
81 1 242 241 243 
82 1 245 244 246 
83 1 248 247 249 
84 1 251 250 252 
85 1 254 253 255 
86 1 257 256 258 
87 1 260 259 261 
88 1 263 262 264 
89 1 266 265 267 
90 1 269 268 270 
91 1 272 271 273 
92 1 275 274 276 
93 1 278 277 279 
94 1 281 280 282 
95 1 284 283 285 
96 1 287 286 288 
97 1 290 289 291 
98 1 293 292 294 
99 1 296 295 297 
100 1 299 298 300 
101 1 302 301 303 
102 1 305 304 306 
103 1 308 307 309 
104 1 311 310 312 
105 1 314 313 315 
106 1 317 316 318 
107 1 320 319 321 
108 1 323 322 324 
109 1 326 325 327 
110 1 329 328 330 
111 1 332 331 333 
112 1 335 334 336 
113 1 338 337 339 
114 1 341 340 342 
115 1 344 343 345 
116 1 347 346 348 
117 1 350 349 351 
118 1 353 352 354 
119 1 356 355 357 
120 1 359 358 360 
121 1 362 361 363 
122 1 365 364 366 
123 1 368 367 369 
124 1 371 370 372 
125 1 374 373 375 
126 1 377 376 378 
127 1 380 379 381 
128 1 383 382 384 
129 1 386 385 387 
130 1 389 388 390 
131 1 392 391 393 
132 1 395 394 396 
133 1 398 397 399 
134 1 401 400 402 
135 1 404 403 405 
136 1 407 406 408 
137 1 410 409 411 
138 1 413 412 414 
139 1 416 415 417 
140 1 419 418 420 
141 1 422 421 423 
142 1 425 424 426 
143 1 428 427 429 
144 1 431 430 432 
145 1 434 433 435 
146 1 437 436 438 
147 1 440 439 441 
148 1 443 442 444 
149 1 446 445 447 
150 1 449 448 450 
151 1 452 451 453 
152 1 455 454 456 
153 1 458 457 459 
154 1 461 460 462 
155 1 464 463 465 
156 1 467 466 468 
157 1 470 469 471 
158 1 473 472 474 
159 1 476 475 477 
160 1 479 478 480 
161 1 482 481 483 
162 1 485 484 486 
163 1 488 487 489 
164 1 491 490 492 
165 1 494 493 495 
166 1 497 496 498 
167 1 500 499 501 
168 1 503 502 504 
169 1 506 505 507 
170 1 509 508 510 
171 1 512 511 513 
172 1 515 514 516 
173 1 518 517 519 
174 1 521 520 522 
175 1 524 523 525 
176 1 527 526 528 
177 1 530 529 531 
178 1 533 532 534 
179 1 536 535 537 
180 1 539 538 540 
181 1 542 541 543 
182 1 545 544 546 
183 1 548 547 549 
184 1 551 550 552 
185 1 554 553 555 
186 1 557 556 558 
187 1 560 559 561 
188 1 563 562 564 
189 1 566 565 567 
190 1 569 568 570 
191 1 572 571 573 
192 1 575 574 576 
193 1 578 577 579 
194 1 581 580 582 
195 1 584 583 585 
196 1 587 586 588 
197 1 590 589 591 
198 1 593 592 594 
199 1 596 595 597 
200 1 599 598 600 
201 1 602 601 603 
202 1 605 604 606 
203 1 608 607 609 
204 1 611 610 612 
205 1 614 613 615 
206 1 617 616 618 
207 1 620 619 621 
208 1 623 622 624 
209 1 626 625 627 
210 1 629 628 630 
211 1 632 631 633 
212 1 635 634 636 
213 1 638 637 639 
214 1 641 640 642 
215 1 644 643 645 
216 1 647 646 648 
217 1 650 649 651 
218 1 653 652 654 
219 1 656 655 657 
220 1 659 658 660 
221 1 662 661 663 
222 1 665 664 666 
223 1 668 667 669 
224 1 671 670 672 
225 1 674 673 675 
226 1 677 676 678 
227 1 680 679 681 
228 1 683 682 684 
229 1 686 685 687 
230 1 689 688 690 
231 1 692 691 693 
232 1 695 694 696 
233 1 698 697 699 
234 1 701 700 702 
235 1 704 703 705 
236 1 707 706 708 
237 1 710 709 711 
238 1 713 712 714 
239 1 716 715 717 
240 1 719 718 720 
241 1 722 721 723 
242 1 725 724 726 
243 1 728 727 729 
244 1 731 730 732 
245 1 734 733 735 
246 1 737 736 738 
247 1 740 739 741 
248 1 743 742 744 
249 1 746 745 747 
250 1 749 748 750 
251 1 752 751 753 
252 1 755 754 756 
253 1 758 757 759 
254 1 761 760 762 
255 1 764 763 765 
256 1 767 766 768 
257 1 770 769 771 
258 1 773 772 774 
259 1 776 775 777 
260 1 779 778 780 
261 1 782 781 783 
262 1 785 784 786 
263 1 788 787 789 
264 1 791 790 792 
265 1 794 793 795 
266 1 797 796 798 
267 1 800 799 801 
268 1 803 802 804 
269 1 806 805 807 
270 1 809 808 810 
271 1 812 811 813 
272 1 815 814 816 
273 1 818 817 819 
274 1 821 820 822 
275 1 824 823 825 
276 1 827 826 828 
277 1 830 829 831 
278 1 833 832 834 
279 1 836 835 837 
280 1 839 838 840 
281 1 842 841 843 
282 1 845 844 846 
283 1 848 847 849 
284 1 851 850 852 
285 1 854 853 855 
286 1 857 856 858 
287 1 860 859 861 
288 1 863 862 864 
289 1 866 865 867 
290 1 869 868 870 
291 1 872 871 873 
292 1 875 874 876 
293 1 878 877 879 
294 1 881 880 882 
295 1 884 883 885 
296 1 887 886 888 
297 1 890 889 891 
298 1 893 892 894 
299 1 896 895 897 
300 1 899 898 900 
301 1 902 901 903 
302 1 905 904 906 
303 1 908 907 909 
304 1 911 910 912 
305 1 914 913 915 
306 1 917 916 918 
307 1 920 919 921 
308 1 923 922 924 
309 1 926 925 927 
310 1 929 928 930 
311 1 932 931 933 
312 1 935 934 936 
313 1 938 937 939 
314 1 941 940 942 
315 1 944 943 945 
316 1 947 946 948 
317 1 950 949 951 
318 1 953 952 954 
319 1 956 955 957 
320 1 959 958 960 
321 1 962 961 963 
322 1 965 964 966 
323 1 968 967 969 
324 1 971 970 972 
325 1 974 973 975 
326 1 977 976 978 
327 1 980 979 981 
328 1 983 982 984 
329 1 986 985 987 
330 1 989 988 990 
331 1 992 991 993 
332 1 995 994 996 
333 1 998 997 999 
334 1 1001 1000 1002 
335 1 1004 1003 1005 
336 1 1007 1006 1008 
337 1 1010 1009 1011 
338 1 1013 1012 1014 
339 1 1016 1015 1017 
340 1 1019 1018 1020 
341 1 1022 1021 1023 
342 1 1025 1024 1026 
343 1 1028 1027 1029 
344 1 1031 1030 1032 
345 1 1034 1033 1035 
346 1 1037 1036 1038 
347 1 1040 1039 1041 
348 1 1043 1042 1044 
349 1 1046 1045 1047 
350 1 1049 1048 1050 
351 1 1052 1051 1053 
352 1 1055 1054 1056 
353 1 1058 1057 1059 
354 1 1061 1060 1062 
355 1 1064 1063 1065 
356 1 1067 1066 1068 
357 1 1070 1069 1071 
358 1 1073 1072 1074 
359 1 1076 1075 1077 
360 1 1079 1078 1080 
361 1 1082 1081 1083 
362 1 1085 1084 1086 
363 1 1088 1087 1089 
364 1 1091 1090 1092 
365 1 1094 1093 1095 
366 1 1097 1096 1098 
367 1 1100 1099 1101 
368 1 1103 1102 1104 
369 1 1106 1105 1107 
370 1 1109 1108 1110 
371 1 1112 1111 1113 
372 1 1115 1114 1116 
373 1 1118 1117 1119 
374 1 1121 1120 1122 
375 1 1124 1123 1125 
376 1 1127 1126 1128 
377 1 1130 1129 1131 
378 1 1133 1132 1134 
379 1 1136 1135 1137 
380 1 1139 1138 1140 
381 1 1142 1141 1143 
382 1 1145 1144 1146 
383 1 1148 1147 1149 
384 1 1151 1150 1152 
385 1 1154 1153 1155 
386 1 1157 1156 1158 
387 1 1160 1159 1161 
388 1 1163 1162 1164 
389 1 1166 1165 1167 
390 1 1169 1168 1170 
391 1 1172 1171 1173 
392 1 1175 1174 1176 
393 1 1178 1177 1179 
394 1 1181 1180 1182 
395 1 1184 1183 1185 
396 1 1187 1186 1188 
397 1 1190 1189 1191 
398 1 1193 1192 1194 
399 1 1196 1195 1197 
400 1 1199 1198 1200 
401 1 1202 1201 1203 
402 1 1205 1204 1206 
403 1 1208 1207 1209 
404 1 1211 1210 1212 
405 1 1214 1213 1215 
406 1 1217 1216 1218 
407 1 1220 1219 1221 
408 1 1223 1222 1224 
409 1 1226 1225 1227 
410 1 1229 1228 1230 
411 1 1232 1231 1233 
412 1 1235 1234 1236 
413 1 1238 1237 1239 
414 1 1241 1240 1242 
415 1 1244 1243 1245 
416 1 1247 1246 1248 
417 1 1250 1249 1251 
418 1 1253 1252 1254 
419 1 1256 1255 1257 
420 1 1259 1258 1260 
421 1 1262 1261 1263 
422 1 1265 1264 1266 
423 1 1268 1267 1269 
424 1 1271 1270 1272 
425 1 1274 1273 1275 
426 1 1277 1276 1278 
427 1 1280 1279 1281 
428 1 1283 1282 1284 
429 1 1286 1285 1287 
430 1 1289 1288 1290 
431 1 1292 1291 1293 
432 1 1295 1294 1296 
433 1 1298 1297 1299 
434 1 1301 1300 1302 
435 1 1304 1303 1305 
436 1 1307 1306 1308 
437 1 1310 1309 1311 
438 1 1313 1312 1314 
439 1 1316 1315 1317 
440 1 1319 1318 1320 
441 1 1322 1321 1323 
442 1 1325 1324 1326 
443 1 1328 1327 1329 
444 1 1331 1330 1332 
445 1 1334 1333 1335 
446 1 1337 1336 1338 
447 1 1340 1339 1341 
448 1 1343 1342 1344 
449 1 1346 1345 1347 
450 1 1349 1348 1350 
451 1 1352 1351 1353 
452 1 1355 1354 1356 
453 1 1358 1357 1359 
454 1 1361 1360 1362 
455 1 1364 1363 1365 
456 1 1367 1366 1368 
457 1 1370 1369 1371 
458 1 1373 1372 1374 
459 1 1376 1375 1377 
460 1 1379 1378 1380 
461 1 1382 1381 1383 
462 1 1385 1384 1386 
463 1 1388 1387 1389 
464 1 1391 1390 1392 
465 1 1394 1393 1395 
466 1 1397 1396 1398 
467 1 1400 1399 1401 
468 1 1403 1402 1404 
469 1 1406 1405 1407 
470 1 1409 1408 1410 
471 1 1412 1411 1413 
472 1 1415 1414 1416 
473 1 1418 1417 1419 
474 1 1421 1420 1422 
475 1 1424 1423 1425 
476 1 1427 1426 1428 
477 1 1430 1429 1431 
478 1 1433 1432 1434 
479 1 1436 1435 1437 
480 1 1439 1438 1440 
481 1 1442 1441 1443 
482 1 1445 1444 1446 
483 1 1448 1447 1449 
484 1 1451 1450 1452 
485 1 1454 1453 1455 
486 1 1457 1456 1458 
487 1 1460 1459 1461 
488 1 1463 1462 1464 
489 1 1466 1465 1467 
490 1 1469 1468 1470 
491 1 1472 1471 1473 
492 1 1475 1474 1476 
493 1 1478 1477 1479 
494 1 1481 1480 1482 
495 1 1484 1483 1485 
496 1 1487 1486 1488 
497 1 1490 1489 1491 
498 1 1493 1492 1494 
499 1 1496 1495 1497 
500 1 1499 1498 1500 
501 1 1502 1501 1503 
502 1 1505 1504 1506 
503 1 1508 1507 1509 
504 1 1511 1510 1512 
505 1 1514 1513 1515 
506 1 1517 1516 1518 
507 1 1520 1519 1521 
508 1 1523 1522 1524 
509 1 1526 1525 1527 
510 1 1529 1528 1530 
511 1 1532 1531 1533 
512 1 1535 1534 1536 
513 1 1538 1537 1539 
514 1 1541 1540 1542 
515 1 1544 1543 1545 
516 1 1547 1546 1548 
517 1 1550 1549 1551 
518 1 1553 1552 1554 
519 1 1556 1555 1557 
520 1 1559 1558 1560 
521 1 1562 1561 1563 
522 1 1565 1564 1566 
523 1 1568 1567 1569 
524 1 1571 1570 1572 
525 1 1574 1573 1575 
526 1 1577 1576 1578 
527 1 1580 1579 1581 
528 1 1583 1582 1584 
529 1 1586 1585 1587 
530 1 1589 1588 1590 
531 1 1592 1591 1593 
532 1 1595 1594 1596 
533 1 1598 1597 1599 
534 1 1601 1600 1602 
535 1 1604 1603 1605 
536 1 1607 1606 1608 
537 1 1610 1609 1611 
538 1 1613 1612 1614 
539 1 1616 1615 1617 
540 1 1619 1618 1620 
541 1 1622 1621 1623 
542 1 1625 1624 1626 
543 1 1628 1627 1629 
544 1 1631 1630 1632 
545 1 1634 1633 1635 
546 1 1637 1636 1638 
547 1 1640 1639 1641 
548 1 1643 1642 1644 
549 1 1646 1645 1647 
550 1 1649 1648 1650 
551 1 1652 1651 1653 
552 1 1655 1654 1656 
553 1 1658 1657 1659 
554 1 1661 1660 1662 
555 1 1664 1663 1665 
556 1 1667 1666 1668 
557 1 1670 1669 1671 
558 1 1673 1672 1674 
559 1 1676 1675 1677 
560 1 1679 1678 1680 
561 1 1682 1681 1683 
562 1 1685 1684 1686 
563 1 1688 1687 1689 
564 1 1691 1690 1692 
565 1 1694 1693 1695 
566 1 1697 1696 1698 
567 1 1700 1699 1701 
568 1 1703 1702 1704 
569 1 1706 1705 1707 
570 1 1709 1708 1710 
571 1 1712 1711 1713 
572 1 1715 1714 1716 
573 1 1718 1717 1719 
574 1 1721 1720 1722 
575 1 1724 1723 1725 
576 1 1727 1726 1728 
577 1 1730 1729 1731 
578 1 1733 1732 1734 
579 1 1736 1735 1737 
580 1 1739 1738 1740 
581 1 1742 1741 1743 
582 1 1745 1744 1746 
583 1 1748 1747 1749 
584 1 1751 1750 1752 
585 1 1754 1753 1755 
586 1 1757 1756 1758 
587 1 1760 1759 1761 
588 1 1763 1762 1764 
589 1 1766 1765 1767 
590 1 1769 1768 1770 
591 1 1772 1771 1773 
592 1 1775 1774 1776 
593 1 1778 1777 1779 
594 1 1781 1780 1782 
595 1 1784 1783 1785 
596 1 1787 1786 1788 
597 1 1790 1789 1791 
598 1 1793 1792 1794 
599 1 1796 1795 1797 
600 1 1799 1798 1800 
601 1 1802 1801 1803 
602 1 1805 1804 1806 
603 1 1808 1807 1809 
604 1 1811 1810 1812 
605 1 1814 1813 1815 
606 1 1817 1816 1818 
607 1 1820 1819 1821 
608 1 1823 1822 1824 
609 1 1826 1825 1827 
610 1 1829 1828 1830 
611 1 1832 1831 1833 
612 1 1835 1834 1836 
613 1 1838 1837 1839 
614 1 1841 1840 1842 
615 1 1844 1843 1845 
616 1 1847 1846 1848 
617 1 1850 1849 1851 
618 1 1853 1852 1854 
619 1 1856 1855 1857 
620 1 1859 1858 1860 
621 1 1862 1861 1863 
622 1 1865 1864 1866 
623 1 1868 1867 1869 
624 1 1871 1870 1872 
625 1 1874 1873 1875 
626 1 1877 1876 1878 
627 1 1880 1879 1881 
628 1 1883 1882 1884 
629 1 1886 1885 1887 
630 1 1889 1888 1890 
631 1 1892 1891 1893 
632 1 1895 1894 1896 
633 1 1898 1897 1899 
634 1 1901 1900 1902 
635 1 1904 1903 1905 
636 1 1907 1906 1908 
637 1 1910 1909 1911 
638 1 1913 1912 1914 
639 1 1916 1915 1917 
640 1 1919 1918 1920 
641 1 1922 1921 1923 
642 1 1925 1924 1926 
643 1 1928 1927 1929 
644 1 1931 1930 1932 
645 1 1934 1933 1935 
646 1 1937 1936 1938 
647 1 1940 1939 1941 
648 1 1943 1942 1944 
649 1 1946 1945 1947 
650 1 1949 1948 1950 
651 1 1952 1951 1953 
652 1 1955 1954 1956 
653 1 1958 1957 1959 
654 1 1961 1960 1962 
655 1 1964 1963 1965 
656 1 1967 1966 1968 
657 1 1970 1969 1971 
658 1 1973 1972 1974 
659 1 1976 1975 1977 
660 1 1979 1978 1980 
661 1 1982 1981 1983 
662 1 1985 1984 1986 
663 1 1988 1987 1989 
664 1 1991 1990 1992 
665 1 1994 1993 1995 
666 1 1997 1996 1998 
667 1 2000 1999 2001 
668 1 2003 2002 2004 
669 1 2006 2005 2007 
670 1 2009 2008 2010 
671 1 2012 2011 2013 
672 1 2015 2014 2016 
673 1 2018 2017 2019 
674 1 2021 2020 2022 
675 1 2024 2023 2025 
676 1 2027 2026 2028 
677 1 2030 2029 2031 
678 1 2033 2032 2034 
679 1 2036 2035 2037 
680 1 2039 2038 2040 
681 1 2042 2041 2043 
682 1 2045 2044 2046 
683 1 2048 2047 2049 
684 1 2051 2050 2052 
685 1 2054 2053 2055 
686 1 2057 2056 2058 
687 1 2060 2059 2061 
688 1 2063 2062 2064 
689 1 2066 2065 2067 
690 1 2069 2068 2070 
691 1 2072 2071 2073 
692 1 2075 2074 2076 
693 1 2078 2077 2079 
694 1 2081 2080 2082 
695 1 2084 2083 2085 
696 1 2087 2086 2088 
697 1 2090 2089 2091 
698 1 2093 2092 2094 
699 1 2096 2095 2097 
700 1 2099 2098 2100 
701 1 2102 2101 2103 
702 1 2105 2104 2106 
703 1 2108 2107 2109 
704 1 2111 2110 2112 
705 1 2114 2113 2115 
706 1 2117 2116 2118 
707 1 2120 2119 2121 
708 1 2123 2122 2124 
709 1 2126 2125 2127 
710 1 2129 2128 2130 
711 1 2132 2131 2133 
712 1 2135 2134 2136 
713 1 2138 2137 2139 
714 1 2141 2140 2142 
715 1 2144 2143 2145 
716 1 2147 2146 2148 
717 1 2150 2149 2151 
718 1 2153 2152 2154 
719 1 2156 2155 2157 
720 1 2159 2158 2160 
721 1 2162 2161 2163 
722 1 2165 2164 2166 
723 1 2168 2167 2169 
724 1 2171 2170 2172 
725 1 2174 2173 2175 
726 1 2177 2176 2178 
727 1 2180 2179 2181 
728 1 2183 2182 2184 
729 1 2186 2185 2187 
730 1 2189 2188 2190 
731 1 2192 2191 2193 
732 1 2195 2194 2196 
733 1 2198 2197 2199 
734 1 2201 2200 2202 
735 1 2204 2203 2205 
736 1 2207 2206 2208 
737 1 2210 2209 2211 
738 1 2213 2212 2214 
739 1 2216 2215 2217 
740 1 2219 2218 2220 
741 1 2222 2221 2223 
742 1 2225 2224 2226 
743 1 2228 2227 2229 
744 1 2231 2230 2232 
745 1 2234 2233 2235 
746 1 2237 2236 2238 
747 1 2240 2239 2241 
748 1 2243 2242 2244 
749 1 2246 2245 2247 
750 1 2249 2248 2250 
751 1 2252 2251 2253 
752 1 2255 2254 2256 
753 1 2258 2257 2259 
754 1 2261 2260 2262 
755 1 2264 2263 2265 
756 1 2267 2266 2268 
757 1 2270 2269 2271 
758 1 2273 2272 2274 
759 1 2276 2275 2277 
760 1 2279 2278 2280 
761 1 2282 2281 2283 
762 1 2285 2284 2286 
763 1 2288 2287 2289 
764 1 2291 2290 2292 
765 1 2294 2293 2295 
766 1 2297 2296 2298 
767 1 2300 2299 2301 
768 1 2303 2302 2304 
769 1 2306 2305 2307 
770 1 2309 2308 2310 
771 1 2312 2311 2313 
772 1 2315 2314 2316 
773 1 2318 2317 2319 
774 1 2321 2320 2322 
775 1 2324 2323 2325 
776 1 2327 2326 2328 
777 1 2330 2329 2331 
778 1 2333 2332 2334 
779 1 2336 2335 2337 
780 1 2339 2338 2340 
781 1 2342 2341 2343 
782 1 2345 2344 2346 
783 1 2348 2347 2349 
784 1 2351 2350 2352 
785 1 2354 2353 2355 
786 1 2357 2356 2358 
787 1 2360 2359 2361 
788 1 2363 2362 2364 
789 1 2366 2365 2367 
790 1 2369 2368 2370 
791 1 2372 2371 2373 
792 1 2375 2374 2376 
793 1 2378 2377 2379 
794 1 2381 2380 2382 
795 1 2384 2383 2385 
796 1 2387 2386 2388 
797 1 2390 2389 2391 
798 1 2393 2392 2394 
799 1 2396 2395 2397 
800 1 2399 2398 2400 
