LAMMPS data file via write_data, version 22 Jul 2025, timestep = 120000, units = real

2400 atoms
2 atom types
1600 bonds
1 bond types
800 angles
1 angle types

2.9538655685893485 32.04613443141029 xlo xhi
2.9538655685893485 32.04613443141029 ylo yhi
2.9538655685893485 32.04613443141029 zlo zhi

Masses

1 15.9994
2 1.008

Pair Coeffs # lj/cut/tip4p/long

1 0.185199 3.1589
2 0 0

Bond Coeffs # harmonic

1 0 0.9572

Angle Coeffs # harmonic

1 0 104.52

Atoms # full

1488 496 2 0.527 12.14033287139083 8.924889128842374 13.759980381504393 0 0 0
1556 519 2 0.527 8.407756331201785 5.513249001896381 5.415051274213143 0 0 0
1423 475 1 -1.054 4.308720270584125 7.682844407776877 12.047606347035309 1 1 0
178 60 1 -1.054 6.215962913619462 3.427693209556519 7.933597830349518 1 0 0
665 222 2 0.527 5.6021504552585295 11.359840706509834 16.423324326196738 1 0 -1
1641 547 2 0.527 15.865631304269376 11.79822947155927 11.923475037277365 0 0 1
2234 745 2 0.527 15.573423925912442 17.411624612525024 10.373546021120998 -1 0 1
417 139 2 0.527 10.554007744012754 4.384004210107662 6.032262692092919 0 1 1
585 195 2 0.527 10.026493084202682 7.539312341565257 8.346807784027177 1 1 0
352 118 1 -1.054 16.565829880729375 4.808698675378698 12.422577957154681 0 0 0
1048 350 1 -1.054 14.930529065630203 13.342307270994748 15.322784152506877 0 0 0
936 312 2 0.527 14.17952993700515 3.132878499043337 6.395840038618562 1 0 0
666 222 2 0.527 6.614935116531574 12.38899589058404 16.878282414940017 1 0 -1
421 141 1 -1.054 15.896227254462477 14.594527909081192 12.856090258292044 0 0 0
278 93 2 0.527 3.66315523003283 7.214841455896853 5.8649640968356564 0 0 0
1237 413 1 -1.054 8.722589759235927 9.061580532778562 13.54090096849826 0 0 0
584 195 2 0.527 9.331118902530743 6.340543858513056 7.737472923304916 1 1 0
2365 789 1 -1.054 9.580638668528884 16.05999810077191 10.20051971402837 1 0 0
104 35 2 0.527 3.9372534395953167 15.00235495309344 15.990057622956943 1 0 0
1852 618 1 -1.054 12.835734436967822 12.66069217130373 12.734765869987402 0 0 1
1277 426 2 0.527 15.099454348901713 11.758762747876021 8.866923386504283 0 0 1
157 53 1 -1.054 12.684040889655275 16.873511019076037 15.980987763712635 0 1 0
1639 547 1 -1.054 15.610745724115317 11.521194633437426 12.803538005173218 0 0 1
2333 778 2 0.527 15.265661816572317 4.670544865801251 13.635790631902953 0 0 0
1741 581 1 -1.054 13.98984116808469 16.490410116038195 5.47204185442209 0 0 0
1916 639 2 0.527 3.837341598739588 13.32170955236141 13.405523972273167 0 0 0
927 309 2 0.527 6.921120032576577 8.499071595212897 13.53852629103744 0 0 -1
926 309 2 0.527 5.7427058059282 8.921324056046553 14.389950264344174 0 0 -1
933 311 2 0.527 9.494024278999497 8.717817948119631 4.445816963519759 1 0 0
1280 427 2 0.527 4.719677488963703 4.775643339539538 13.014764517862055 0 1 0
2332 778 1 -1.054 14.748730686422759 4.766261592071941 14.435694562734648 0 0 0
152 51 2 0.527 14.986012304810187 12.415255166257454 4.778291723781741 0 1 0
14 5 2 0.527 10.537334424713395 13.864949381920274 10.771029959167087 1 -1 0
932 311 2 0.527 10.932122857190464 8.255471778071051 4.545759522211206 1 0 0
15 5 2 0.527 10.253950647777927 12.377916169782312 10.788519363594258 1 -1 0
1743 581 2 0.527 14.019854138673098 16.053498332408225 4.620905495958535 0 0 0
542 181 2 0.527 13.771850986825863 9.90212884328895 16.100176955741894 0 1 0
2344 782 1 -1.054 16.0458851669056 3.618460824666932 9.432495496854179 0 0 0
2171 724 2 0.527 5.187153617821582 9.199944579639162 10.453339323889677 0 0 0
1612 538 1 -1.054 17.442628007674507 8.900271199214947 8.368694058387856 0 0 0
1709 570 2 0.527 16.77674092635472 7.72990988645214 14.113679583301979 0 0 0
1041 347 2 0.527 6.36180586536501 14.58633939596752 6.724823502237449 0 0 0
327 109 2 0.527 14.462867222036978 8.292327524035725 10.466240978206297 0 0 1
1130 377 2 0.527 5.969131634773554 7.726355444848715 4.2817125525168125 1 1 1
956 319 2 0.527 8.061979327710041 9.702623407435201 8.327989566902186 0 0 0
412 138 1 -1.054 11.439391822950306 8.629163245973926 7.976640216871253 0 0 1
374 125 2 0.527 16.447430210380197 17.12857916492661 17.08432959155064 0 0 0
1781 594 2 0.527 9.532086694909001 5.364889758255133 15.205449800315717 1 0 1
729 243 2 0.527 12.711722216643375 3.877208348100946 5.046125133760418 0 0 0
1653 551 2 0.527 7.8620185968433205 13.713282095979356 8.346314774822115 1 0 0
566 189 2 0.527 12.984304972786369 10.557486615889923 10.57693267515129 0 0 0
1557 519 2 0.527 9.458277753280655 6.602376146566175 5.460733705314778 0 0 0
353 118 2 0.527 17.311172005369023 4.51186902385344 12.944672845694166 0 0 0
2267 756 2 0.527 4.6825319899450415 11.223565066104937 7.293652863515942 0 1 0
1840 614 1 -1.054 17.195157184465614 10.955996665068673 15.304812138610906 0 0 0
2007 669 2 0.527 16.278220586286864 11.186737802111313 16.905186878145557 0 1 1
872 291 2 0.527 15.02864753127314 8.64458432131122 4.941614146398716 0 0 0
2329 777 1 -1.054 7.303220616498431 11.427407229550147 12.870660026091148 1 0 0
567 189 2 0.527 12.207299749012934 9.289306473118739 10.859531442312857 0 0 0
1024 342 1 -1.054 13.256452192339692 7.347309666278363 11.359014950131954 0 1 0
1784 595 2 0.527 4.777495128824074 15.073993175452372 13.662998431602725 0 0 0
1486 496 1 -1.054 11.552251248889997 9.679342950921718 13.725553310552172 0 0 0
1482 494 2 0.527 11.790378660550147 13.012274792490828 3.5087785787128105 1 0 1
159 53 2 0.527 11.78055705369197 17.02560950336699 16.258131805557802 0 1 0
354 118 2 0.527 16.604959546513477 4.279557108430041 11.62589491029796 0 0 0
798 266 2 0.527 12.23956616247386 10.473746870358397 3.298426270424707 0 0 1
1367 456 2 0.527 3.016633135954827 4.75328589259875 9.712683010856008 1 0 0
1613 538 2 0.527 17.476302327242777 8.505699911897622 7.497255397022031 0 0 0
645 215 2 0.527 13.169198700903088 8.00852083486588 5.92374928916929 1 1 1
476 159 2 0.527 7.8610905966429225 8.929924774548322 6.142542736913453 0 1 1
151 51 1 -1.054 15.733835209507907 12.05449894493418 4.302012777494561 0 1 0
81 27 2 0.527 10.42554350383713 11.615392715079793 5.955525097242845 0 0 0
326 109 2 0.527 15.703719805563418 9.148655508663577 10.32888181490447 0 0 1
1424 475 2 0.527 3.7955025245749168 8.484470352965074 12.148745991911147 1 1 0
909 303 2 0.527 9.168180767194418 15.605029084040753 4.789419896960846 0 0 1
1239 413 2 0.527 9.627033514546222 9.17211883697981 13.834139040157194 0 0 0
180 60 2 0.527 5.711145873803691 3.667487261478365 7.156497874465263 1 0 0
2366 789 2 0.527 9.063442398261595 16.323373098782618 9.439357796987968 1 0 0
413 138 2 0.527 11.532524675837454 9.576958110131734 8.072749679714343 0 0 1
695 232 2 0.527 6.084663779183651 16.86960082342084 5.126287015898816 0 0 1
860 287 2 0.527 14.562902431808032 6.6942750360835905 7.5268673873942555 0 -1 0
1421 474 2 0.527 8.520562254666679 11.444759334992309 5.00437436297816 1 0 0
168 56 2 0.527 12.03702415310305 17.438698249686873 13.85174499114535 0 0 0
423 141 2 0.527 16.644093663685368 14.053872816673016 12.60189804334157 0 0 0
664 222 1 -1.054 5.783403417950112 11.984496824240303 17.125590578782937 1 0 -1
1614 538 2 0.527 17.091886970290734 8.20988234928476 8.931339385723547 0 0 0
181 61 1 -1.054 3.4366359522448655 3.357573412053269 12.042865809808845 1 0 1
2170 724 1 -1.054 5.641323987977946 10.03031357362514 10.596316234529041 0 0 0
2057 686 2 0.527 16.875276667814042 11.327826309955386 7.2392115056733815 -1 0 0
1915 639 1 -1.054 3.334479877263109 12.561932789176097 13.69894371405286 0 0 0
1649 550 2 0.527 16.360660580678413 14.740466345143947 15.814931074446731 0 0 0
1039 347 1 -1.054 5.96575551728264 14.871072881266551 5.9012357717120105 0 0 0
1050 350 2 0.527 14.13599739589901 13.864041981897794 15.435647509821584 0 0 0
1049 350 2 0.527 15.007191548639234 12.842897742498161 16.135765559418207 0 0 0
1189 397 1 -1.054 7.033907191023241 5.598123028780996 9.705063822295244 1 0 0
1276 426 1 -1.054 15.190359485195424 11.181529202854527 8.108791817656709 0 0 1
1197 399 2 0.527 8.237147081780137 15.21276354857767 13.864930077628605 1 0 0
595 199 1 -1.054 14.95414336377074 6.311119794826134 17.322262696631803 1 1 0
416 139 2 0.527 11.363015134098006 3.323536882581558 6.748360517282325 0 1 1
2367 789 2 0.527 10.386740214079737 16.571538957655378 10.131583789895256 1 0 0
2077 693 1 -1.054 4.637466561875251 12.309469505559639 9.251604393388188 0 0 0
103 35 1 -1.054 4.853166029646554 15.088867761292674 15.725774625392019 1 0 0
571 191 1 -1.054 12.366165380007347 4.572925149305789 10.868696431875474 0 1 0
89 30 2 0.527 9.223517150743383 17.415395993928175 7.700863754179212 0 1 0
2253 751 2 0.527 5.977920703945463 4.64617206294086 4.601882677723833 0 1 1
145 49 1 -1.054 10.971726816365186 11.067164633339605 16.07894992016744 0 0 0
1710 570 2 0.527 16.173470757309076 6.714313336400156 13.166838055574988 0 0 0
1652 551 2 0.527 7.56133940255715 12.244637486125555 8.135234128450577 1 0 0
90 30 2 0.527 8.96100728574761 16.017729000481776 7.18173410952492 0 1 0
925 309 1 -1.054 6.066336968880071 8.200769626313203 13.849311782809007 0 0 -1
464 155 2 0.527 11.989909853260665 13.730554758507754 16.229507981039298 0 0 0
1854 618 2 0.527 12.797908234816022 13.008421111147047 13.625765060510123 0 0 1
2282 761 2 0.527 7.728706937146836 4.577076208451782 11.069320946387013 0 1 0
406 136 1 -1.054 11.740139446272067 3.712466160284866 13.81880449908533 1 0 0
1659 553 2 0.527 4.6088445346118725 17.36506337425244 14.770797932338693 0 0 0
147 49 2 0.527 11.717296535660875 10.746976739764998 16.58672083544309 0 0 0
1533 511 2 0.527 6.042932263349853 10.839568977134247 14.258601609192821 1 0 0
2079 693 2 0.527 5.305434122946984 12.994865454488478 9.268263757019332 0 0 0
1458 486 2 0.527 4.406655143461019 7.509722063858344 9.1973003719751 1 1 0
325 109 1 -1.054 14.843229348161016 8.99477857150696 9.93887671210443 0 0 1
644 215 2 0.527 13.347165700419424 7.640119219240271 4.466186912045357 1 1 1
1279 427 1 -1.054 5.446340770549842 5.038681665769198 13.579562851715693 0 1 0
873 291 2 0.527 15.835213187831853 9.707099207847529 4.225797150129306 0 0 0
105 35 2 0.527 5.285830295499476 15.480797733719443 16.48433793822561 1 0 0
425 142 2 0.527 3.4260283539640497 4.287543510251593 4.523161521780256 0 0 1
195 65 2 0.527 8.982866988642392 5.533225862289266 17.277848016355463 0 0 0
1457 486 2 0.527 4.5993658256046706 7.307990709589392 7.709332905951069 1 1 0
80 27 2 0.527 11.891501783360889 11.893614486721082 6.211335609966644 0 0 0
2331 777 2 0.527 6.757646952887352 11.09208355876766 12.159229643878849 1 0 0
1853 618 2 0.527 11.976294165402134 12.859151746945605 12.36301048519624 0 0 1
1863 621 2 0.527 15.242155005447515 13.740237676686775 10.422876844730972 0 -1 0
1862 621 2 0.527 16.554678783140847 13.204749246962535 9.891450911266453 0 -1 0
643 215 1 -1.054 13.162448822902244 8.381818741486436 5.042370320879725 1 1 1
1640 547 2 0.527 14.674761258122041 11.715006661421542 12.8544865966576 0 0 1
1256 419 2 0.527 4.004381816750806 4.137885637261739 16.31880185529214 1 0 0
1420 474 1 -1.054 8.645565891847804 12.354573856634477 5.2742584411978015 1 0 0
1943 648 2 0.527 16.545431530057257 5.820406455776238 7.6399287622008245 0 0 0
1425 475 2 0.527 4.972429099949956 7.7344270902715 12.735396788549584 1 1 0
871 291 1 -1.054 15.838851877283497 8.776354680944564 4.449241032579496 0 0 0
2281 761 1 -1.054 8.224547817938351 4.086071792857702 11.724517313240444 0 1 0
1785 595 2 0.527 5.533517266509633 14.44216951778798 12.513603129871932 0 0 0
269 90 2 0.527 14.947047536624273 3.3242662369958715 15.920437598418905 0 1 0
167 56 2 0.527 10.865050206845815 17.286666596080494 12.90557188293429 0 0 0
885 295 2 0.527 3.977710580197257 17.208403669517423 6.143983068165502 0 0 0
120 40 2 0.527 9.331660816870123 5.821486686955248 11.316043917509413 1 1 1
2233 745 1 -1.054 14.690317955385554 17.472275546843616 10.009305448621717 -1 0 1
1190 397 2 0.527 7.6676211567863275 6.200143905219145 9.314931466186874 1 0 0
947 316 2 0.527 12.403278599549397 13.693847807049524 9.794765315921204 0 1 0
1527 509 2 0.527 9.188496850848892 16.47408785100884 12.039713157965847 1 0 0
1861 621 1 -1.054 15.687376971511073 12.926698554841588 10.185901571200862 0 -1 0
2078 693 2 0.527 3.817205984530306 12.76937673187444 9.430164559340634 0 0 0
2251 751 1 -1.054 6.838091220108966 5.038876568568112 4.750595995669274 0 1 1
2396 799 2 0.527 6.342278899010051 3.591089596740256 16.19065609853476 1 0 0
955 319 1 -1.054 7.393864755637407 10.376137158340342 8.455378551955715 0 0 0
583 195 1 -1.054 9.32719998790769 6.906287012005749 8.509577276607079 1 1 0
1238 413 2 0.527 8.532296997020897 9.857521087358158 13.044420259404708 0 0 0
1944 648 2 0.527 16.47860855969897 5.212919562912359 6.254874829029665 0 0 0
2089 697 1 -1.054 13.139833422692677 7.316308694268734 14.046864423395258 0 0 0
592 198 1 -1.054 13.601052800370622 12.704619358597457 5.932987116900193 1 -1 0
861 287 2 0.527 14.374674282433459 8.067256415286076 8.13627065116174 0 -1 0
13 5 1 -1.054 10.195347515260337 13.166057182517553 11.328542701295522 1 -1 0
2191 731 1 -1.054 7.271152094043741 14.524273617281363 10.729856796024102 0 0 0
1531 511 1 -1.054 5.266951307994056 10.598696475367479 14.764625117306137 1 0 0
2346 782 2 0.527 15.75082795490989 3.7421101508183834 8.530343703704403 0 0 0
2330 777 2 0.527 7.5424032703308255 12.311764613877088 12.593298381409147 1 0 0
859 287 1 -1.054 13.9366510270007 7.415513110421077 7.5889206051394 0 -1 0
134 45 2 0.527 3.2436529839357147 13.146319876423352 5.246137858729092 1 0 0
1842 614 2 0.527 16.59349985470825 10.995859640456294 14.561411044903016 0 0 0
796 266 1 -1.054 12.372080233771042 11.32319123513769 3.7192707453637204 0 0 1
2192 731 2 0.527 6.747700850304268 15.237333606591765 10.36411093085897 0 0 0
422 141 2 0.527 15.555413415932206 14.176249948414931 13.6467325585355 0 0 0
119 40 2 0.527 9.885317713952986 6.483060145293818 10.071992220122093 1 1 1
1525 509 1 -1.054 9.192130334751242 16.84609656271678 12.921655422060324 1 0 0
135 45 2 0.527 4.504417958906833 12.308388187932946 5.2610497195698 1 0 0
948 316 2 0.527 11.83933551569542 12.91129004625031 8.627952724484377 0 1 0
1195 399 1 -1.054 7.523293477319216 14.584049313674342 13.971500541307519 1 0 0
1255 419 1 -1.054 4.2403680107925315 5.053513799594024 16.46766877330512 1 0 0
133 45 1 -1.054 4.178102979007446 13.18108671819706 5.041637720427836 1 0 0
1858 620 1 -1.054 14.011527996854406 14.726757459525727 3.1584471572730064 0 0 1
1467 489 2 0.527 7.954146695732206 13.435047440104913 15.549029273731998 0 0 0
2092 698 1 -1.054 16.864599854839284 9.199666311446311 11.607564261872483 1 1 1
728 243 2 0.527 13.645628396556855 4.769404317490788 4.256387166434363 0 0 0
1129 377 1 -1.054 6.316939474935433 8.432378441015402 3.736930934977958 1 1 1
833 278 2 0.527 7.457564192675902 5.890329560715275 13.739239419867674 1 0 0
2268 756 2 0.527 4.329768195500604 10.084082576818325 6.3614418185149155 0 1 0
297 99 2 0.527 9.953638708092518 3.117987898757886 16.079941836696808 0 0 -1
424 142 1 -1.054 4.374237296596762 4.158923727901421 4.547300321731846 0 0 1
1171 391 1 -1.054 9.056496288342029 8.970998613280829 16.699809900868274 0 0 0
1040 347 2 0.527 5.27216171946486 14.232663609688926 5.735142194118442 0 0 0
658 220 1 -1.054 4.416719825897942 5.657770793843255 10.190083798951544 1 0 0
908 303 2 0.527 8.943029681242317 14.324963297395001 5.565705028458062 0 0 1
2266 756 1 -1.054 4.936837359865507 10.816816478023796 6.4653351770040395 0 1 0
1942 648 1 -1.054 15.929805716692924 5.5820990459388256 6.946790813498824 0 0 0
2278 760 1 -1.054 17.438839077122253 17.081525661510778 11.210604520783187 0 1 0
604 202 1 -1.054 13.997870593207846 15.007720976346171 10.948097606653423 0 0 1
573 191 2 0.527 11.627630517686143 5.175733693925137 10.95480065450082 0 1 0
1555 519 1 -1.054 9.198085861461863 5.783487806183283 5.882572424550867 0 0 0
1929 643 2 0.527 6.909051944265348 16.826158742217544 8.378846948303796 0 0 1
605 202 2 0.527 14.224079219611255 15.853652728391449 10.56150362181968 0 0 1
878 293 2 0.527 3.757471383020079 8.391371772540644 17.32361015668328 0 0 1
832 278 1 -1.054 8.396135808406626 6.077797528206089 13.72639977254013 1 0 0
279 93 2 0.527 4.031294675210255 5.75876084165048 5.67474665260408 0 0 0
2252 751 2 0.527 7.197646314577269 5.168595013157197 3.8730317194474178 0 1 1
1278 426 2 0.527 15.423729066298504 10.331194479791955 8.481210014153294 0 0 1
797 266 2 0.527 12.990793689243057 11.146059482064091 4.427821236565904 0 0 1
1025 342 2 0.527 13.104419316558761 6.488937195890333 10.963656237834515 0 1 0
2093 698 2 0.527 16.633497084730216 8.436055920263662 12.13644661472631 1 1 1
1466 489 2 0.527 9.227318855658321 12.783427221422311 16.045319268058872 0 0 0
1738 580 1 -1.054 17.087309916179944 4.099498901765546 4.6758409906750815 0 1 1
1487 496 2 0.527 11.818918537690744 10.155807032420132 12.93936223872189 0 0 0
1860 620 2 0.527 13.079175612284693 14.540215423420548 3.048234080658439 0 0 1
414 138 2 0.527 12.329330890980053 8.315689272871978 7.815493286816184 0 0 1
1026 342 2 0.527 13.245350429137053 7.182620293491611 12.301872304739234 0 1 0
1742 581 2 0.527 13.280473874488246 16.05200688650177 5.941963682095734 0 0 0
1131 377 2 0.527 6.779419317391165 9.003301552121979 4.350433182368759 1 1 1
2334 778 2 0.527 13.845513967994625 4.847681358780538 14.129432986260815 0 0 0
1626 542 2 0.527 12.024324989162045 15.085870749171436 7.684694461461829 0 0 0
572 191 2 0.527 12.204758866805882 4.111667167584331 10.045644275815079 0 1 0
2010 670 2 0.527 17.43978012035101 4.858115073853485 9.268706632701402 1 1 0
1172 391 2 0.527 8.393224509059763 9.37983180491746 16.143795734656145 0 0 0
594 198 2 0.527 13.945298277774212 12.160892683384526 6.64156468195982 1 -1 0
1624 542 1 -1.054 12.020417253193084 15.187572061725835 6.732923812378653 0 0 0
1422 474 2 0.527 8.215838259648276 12.4129761011185 6.127574986264262 1 0 0
957 319 2 0.527 6.812642129842278 10.014135321611391 9.124228856805129 0 0 0
1798 600 1 -1.054 8.89860860944847 17.256663286277465 3.4033876236874976 1 -1 0
944 315 2 0.527 3.1354099050355204 9.121175732121888 8.81658188310993 1 0 0
465 155 2 0.527 12.225554091354207 15.151648879386157 15.763843584020721 0 0 0
1740 580 2 0.527 16.214339916617412 3.8597821512291453 4.36489873767159 0 1 1
2172 724 2 0.527 5.111110630843303 10.677117071130164 10.130757623266526 0 0 0
475 159 1 -1.054 7.615220276427762 9.739124919914603 5.694247430840138 0 1 1
1196 399 2 0.527 6.855446589563947 15.060547781819997 14.46460863008207 1 0 0
565 189 1 -1.054 12.102250226005337 10.235847954933828 10.76335632919465 0 0 0
146 49 2 0.527 11.085658464840774 10.676168729797594 15.212712223491893 0 0 0
593 198 2 0.527 13.185251149702266 13.443289990568372 6.377622321657967 1 -1 0
69 23 2 0.527 3.288454139988311 15.746908336066465 11.918198478654315 1 0 0
834 278 2 0.527 8.453331901461793 6.999560497993636 13.474790096030114 1 0 0
1884 628 2 0.527 3.033744048052331 9.67715060965538 4.920961246812478 1 0 1
153 51 2 0.527 15.711466798275607 12.493770193696973 3.4518561870245494 0 1 0
426 142 2 0.527 4.533074441806245 3.431101550731338 3.9462417027408794 0 0 1
1191 397 2 0.527 6.890066093058392 4.932226273995626 9.03266733097782 1 0 0
2283 761 2 0.527 8.26252221777991 4.668711035568384 12.483012684819116 0 1 0
907 303 1 -1.054 9.427837627924905 15.149932062145863 5.590475951345953 0 0 1
1739 580 2 0.527 17.280119247569147 3.462845657949976 5.364116385094665 0 1 1
1244 415 2 0.527 4.637705189469823 9.732936411891824 3.420849347424448 0 0 0
79 27 1 -1.054 11.104527252492854 11.540137386161605 6.6260051452789845 0 0 0
2091 697 2 0.527 13.153213669357944 6.991530316097023 14.947178680330177 0 0 0
1257 419 2 0.527 3.6590591176380323 5.339664275600596 17.17224216697221 1 0 0
2090 697 2 0.527 13.980940296872454 7.760403447666774 13.939417411857212 0 0 0
1651 551 1 -1.054 7.425022761188345 13.108679772365281 7.746551118784153 1 0 0
1243 415 1 -1.054 4.062510296115108 10.49449463400911 3.347325640655874 0 0 0
88 30 1 -1.054 8.657421564366064 16.654244641316758 7.828966161238564 0 1 0
727 243 1 -1.054 13.60204202767886 3.92094867556707 4.697350963605936 0 0 0
1648 550 1 -1.054 16.80254077020298 15.34606002008699 16.410098270026793 0 0 0
1708 570 1 -1.054 16.08390924547794 7.620329059189943 13.462371552246182 0 0 0
541 181 1 -1.054 13.329854499108803 9.680831680217178 16.919867414558194 0 1 0
118 40 1 -1.054 10.09655062654803 6.292928070532417 10.98602517172398 1 1 1
1456 486 1 -1.054 4.538666133224519 7.9889463158361 8.379288742690935 1 1 0
2193 731 2 0.527 8.17636239208182 14.824279262915418 10.647293445121083 0 0 0
1281 427 2 0.527 5.051728681056385 5.634195692881249 14.216642233668223 0 1 0
606 202 2 0.527 14.539714944524802 14.950949031423175 11.735122022202672 0 0 1
931 311 1 -1.054 10.038309723510224 7.930473347447997 4.437593567126802 1 0 0
1625 542 2 0.527 11.096060979137448 15.13568777102004 6.489820311627862 0 0 0
1532 511 2 0.527 4.607919973461909 11.247069208300319 14.51660026677123 1 0 0
946 316 1 -1.054 11.767602824359889 13.751196217248937 9.081425786342754 0 1 0
2094 698 2 0.527 16.459863785049073 9.93814736133016 12.062603030153381 1 1 1
477 159 2 0.527 6.95710276212421 10.138275344697217 6.2632694729853515 0 1 1
1465 489 1 -1.054 8.2883669755585 12.841923796616118 16.221879163340517 0 0 0
1927 643 1 -1.054 6.1947670460472075 16.597811501346733 8.973725466302739 0 0 1
277 93 1 -1.054 4.194624651361924 6.513098941811609 6.2408942864217085 0 0 0
1173 391 2 0.527 9.875029045255115 9.401533608346629 16.453092327970083 0 0 0
2395 799 1 -1.054 6.913796033249891 3.384843834015625 15.451023322184193 1 0 0
2397 799 2 0.527 6.484214752844002 3.7873643517156466 14.696263093836645 1 0 0
463 155 1 -1.054 12.184524011277825 14.24877950744848 15.448614754519337 0 0 0
1481 494 2 0.527 10.876458568737878 14.161632327855694 3.8770276084466637 1 0 1
1291 431 1 -1.054 7.299872783677964 14.343679159377178 3.1867436878991575 0 0 0
1799 600 2 0.527 7.963463645911866 17.293592797076773 3.6043003611042295 1 -1 0
1783 595 1 -1.054 4.710632306173752 14.881776547829825 12.72768673165475 0 0 0
660 220 2 0.527 4.225825232976514 6.009866963987128 11.059459070141124 1 0 0
1928 643 2 0.527 5.409891952732893 16.62086104700177 8.426308140539378 0 0 1
1782 594 2 0.527 10.958458243575915 4.857868475598235 15.188906355820645 1 0 1
1780 594 1 -1.054 10.200942870060583 4.9681891399756175 15.763558961070277 1 0 1
1292 431 2 0.527 6.932396692391318 14.319610965239788 4.070263837074098 0 0 0
415 139 1 -1.054 11.04479150383345 3.576119709183207 5.881664829808662 0 1 1
659 220 2 0.527 5.346873246871587 5.839857693498553 10.056349794587561 1 0 0
596 199 2 0.527 15.259433323204759 5.483559165886021 16.950554190583446 1 1 0
1459 487 1 -1.054 11.91868406364448 3.1356995177627365 8.646392034885764 0 0 1
688 230 1 -1.054 9.443640836351328 10.719250811328006 3.116315606937461 0 1 1
1480 494 1 -1.054 11.47033938158973 13.856600296339243 3.191107193194692 1 0 1
1953 651 2 0.527 17.32576789600008 7.954111272446158 4.432575308893815 0 1 0
408 136 2 0.527 11.657953118375344 3.824110106121143 12.871700064782726 1 0 0
182 61 2 0.527 3.0696018166577765 3.6855388471957466 11.221920996072857 1 0 1
1132 378 1 -1.054 10.128194988773398 17.408123017112516 16.967528415305686 0 0 0
1461 487 2 0.527 12.801179090027512 3.0387401329752413 8.288583079109458 0 0 1
597 199 2 0.527 14.00764707269328 6.303550568448106 17.17973814810918 1 1 0
2183 728 2 0.527 4.182212978319379 12.868412922460745 2.9854232792735638 0 0 0
194 65 2 0.527 9.393195579901402 6.986661272995148 17.382900375508022 0 0 0
233 78 2 0.527 17.40245748512688 6.079418441603368 2.9642686640341083 0 1 0
1269 423 2 0.527 8.424710409732 7.673644088071321 20.8355753675876 1 1 0
825 275 2 0.527 8.269883382098964 16.60610706668868 20.268349534571676 0 0 0
2106 702 2 0.527 12.594606013650898 5.445027280194825 24.492647489967332 0 1 -1
1356 452 2 0.527 16.12357761073936 15.710732423108528 20.05826105111695 0 0 0
1926 642 2 0.527 7.3337859328395405 4.448658311500669 22.44543893860685 0 0 -1
1925 642 2 0.527 7.609046014668866 5.927526475902628 22.274966257372277 0 0 -1
1606 536 1 -1.054 10.53629446831333 16.701053338577758 23.05039841757548 0 0 1
176 59 2 0.527 15.288529585783774 16.642168052903173 27.41779191385696 0 -1 0
1304 435 2 0.527 16.0600965314896 5.627962931093653 27.024443147591562 0 0 0
1104 368 2 0.527 12.705251367958313 5.042922336049342 27.300635549226023 1 1 -1
1662 554 2 0.527 7.507106466123338 10.872011988879958 27.42738103019237 0 0 0
283 95 1 -1.054 10.454626350854804 4.392342505118513 30.138633808292106 0 0 0
1103 368 2 0.527 13.611316245166867 4.125731057572933 28.094163586789655 1 1 -1
1734 578 2 0.527 13.222626750048141 17.34164551316715 18.648274681577618 1 0 0
919 307 1 -1.054 15.986537266845774 10.077752265318308 23.596368009496118 0 0 0
2112 704 2 0.527 10.206741918310009 4.395720826460502 23.31038893738541 0 0 0
721 241 1 -1.054 14.66566469375841 14.469884199484449 22.17771138273961 0 0 0
904 302 1 -1.054 5.332581924517017 14.968806930226407 24.865812621822904 0 0 0
1669 557 1 -1.054 13.28098371918683 4.1173043358756045 22.938160700836285 0 0 -1
455 152 2 0.527 15.473856953052422 7.193537164941719 22.590578886342023 0 1 -1
1133 378 2 0.527 9.734857119330437 17.082140371605362 17.77700135294431 0 0 0
1068 356 2 0.527 16.662101706617054 10.474477416128142 27.138134188575584 0 0 0
1571 524 2 0.527 5.984955942748218 4.389200116672438 18.38342610636253 1 0 0
2133 711 2 0.527 8.299544023092427 6.3990578473102335 27.77442475445769 1 0 0
1637 546 2 0.527 4.5104446124510185 5.135716580500791 29.24425904529228 1 0 0
1761 587 2 0.527 4.8983551642627585 8.249507191961651 26.239253652212163 1 1 -1
443 148 2 0.527 5.110911288431035 5.898970007008785 22.908006868287615 0 1 0
348 116 2 0.527 7.542969827039183 6.143907663815235 18.86897143218462 0 1 0
2110 704 1 -1.054 10.424044921316138 3.80074044751286 22.592751470948613 0 0 0
1824 608 2 0.527 3.14745630024277 12.361636512983619 24.599572317721005 0 0 0
731 244 2 0.527 5.028389116741286 3.5606102724613486 24.704208426389577 0 0 0
1014 338 2 0.527 8.64161549871394 17.05035680922561 30.76630825187145 0 0 0
313 105 1 -1.054 4.970610255652811 3.152890201595061 20.80988890611644 0 0 0
315 105 2 0.527 4.237738569895147 3.741603802089586 20.629497144139172 0 0 0
979 327 1 -1.054 5.1982397730305765 15.479367965974003 21.510402599454324 0 0 -1
2229 743 2 0.527 7.527296196248068 13.169053286715338 26.931522697141382 1 0 0
998 333 2 0.527 15.664393787466638 6.820713315254736 25.136102562527995 -1 0 0
1334 445 2 0.527 6.752050029830166 10.588216323427858 22.454713866213822 0 1 0
1200 400 2 0.527 7.1200777913958095 14.605144968376237 22.131396189234458 1 0 -1
804 268 2 0.527 9.51575373532876 13.929604820459137 29.561928661658698 1 0 -1
222 74 2 0.527 9.12856352726936 5.262301217684405 25.13199568027384 0 1 0
389 130 2 0.527 11.914165917549692 6.482628921612254 26.630092111326363 0 0 0
5 2 2 0.527 6.122949546486713 11.612507168896437 30.579262238906082 1 0 -1
2326 776 1 -1.054 11.367812577577899 13.703519313068595 25.691836475722724 1 0 0
330 110 2 0.527 10.661953107855133 11.358675049087768 23.45248801959523 0 0 -1
442 148 1 -1.054 4.626451270639996 6.571408035092947 23.386913334500385 0 1 0
752 251 2 0.527 8.660217165115052 10.052449071279689 18.019515302872225 0 0 0
285 95 2 0.527 11.249330881881273 3.960304187399127 29.825562750973702 0 0 0
481 161 1 -1.054 13.337491114874787 12.84939114352746 18.06853650238907 0 0 0
723 241 2 0.527 14.752769904340942 13.531764613517405 22.3467384202616 0 0 0
2384 795 2 0.527 8.799443554118525 4.116192451362539 31.078330914223095 0 0 0
1758 586 2 0.527 16.174400886422738 9.158441459281137 28.87705878506648 0 0 -1
1199 400 2 0.527 8.393595035330428 14.02325357382562 22.707101434347116 1 0 -1
1837 613 1 -1.054 13.266011941678697 16.324952490506774 23.987689720728355 0 0 0
753 251 2 0.527 8.694426101915726 9.751614161725003 19.502825176862174 0 0 0
2095 699 1 -1.054 3.5354639250210576 5.855641931639901 19.86552865796766 1 0 0
1476 492 2 0.527 11.822447882664862 15.389885097850108 19.634188314223145 0 1 0
528 176 2 0.527 8.512574824586487 11.8549983437463 22.320863796300934 0 0 -1
552 184 2 0.527 12.025743108354037 9.199264330637284 21.873609537063622 0 0 -1
906 302 2 0.527 5.667710791916477 15.158578154391197 23.989512836213756 0 0 0
1514 505 2 0.527 11.670075980710594 8.293843478680497 31.166555184161226 0 1 0
1069 357 1 -1.054 15.02003353346184 14.908803166023326 18.631569267581607 1 0 0
2198 733 2 0.527 15.823356814238279 6.5018042160526965 30.46869961182138 1 0 -1
2005 669 1 -1.054 15.707987028915563 11.096457175866817 17.6686715802119 0 1 1
2227 743 1 -1.054 7.658807888621949 14.060357605058014 26.608247082077938 1 0 0
140 47 2 0.527 10.966561073151377 11.26962096484199 27.631520017627288 0 0 0
780 260 2 0.527 3.811878950585772 12.229185598991943 22.460149011940032 1 0 -1
232 78 1 -1.054 17.448493517512958 5.972684593336805 31.1064247138804 0 1 -1
1302 434 2 0.527 16.03139374845498 7.9319326101004215 17.595305637955974 1 0 0
550 184 1 -1.054 12.805384773524596 9.20675363991616 21.318336110395023 0 0 -1
342 114 2 0.527 4.5019405053793 16.53233220375101 26.84577946539237 1 0 0
1825 609 1 -1.054 3.530715824586994 12.353351972279519 28.0254299381307 1 0 0
1605 535 2 0.527 9.397255526807776 16.145505163301948 26.34093443603347 0 -1 -1
1267 423 1 -1.054 7.723366479948533 8.291186847281194 20.628250969242167 1 1 0
220 74 1 -1.054 9.527701340093316 5.871330368009334 24.510708057443274 0 1 0
494 165 2 0.527 10.53417910756528 6.994888389767087 22.197468736488496 0 0 0
221 74 2 0.527 9.16490898282889 6.7255039658956175 24.745218274311426 0 1 0
526 176 1 -1.054 9.404381684322317 12.159415494501708 22.15282641811875 0 0 -1
2360 787 2 0.527 4.955832200786119 8.929979274480939 28.505115200913096 0 1 -1
1268 423 2 0.527 7.230456504152771 7.867469644391008 19.925592241852335 1 1 0
1563 521 2 0.527 3.0026624372166264 15.447754200493025 18.676637471177294 1 0 0
2359 787 1 -1.054 5.336813680156195 8.140258053098357 28.121163007974033 0 1 -1
905 302 2 0.527 6.115028882016709 14.799366970566481 25.39049602544962 0 0 0
779 260 2 0.527 4.2158482203717185 12.129825986016694 21.00453350095124 1 0 -1
1333 445 1 -1.054 6.908232868379244 11.505152589565803 22.680679766316146 0 1 0
141 47 2 0.527 10.344969683013844 11.031783509783578 26.271763607122416 0 0 0
292 98 1 -1.054 6.871452738530853 3.2149321284742878 28.453957312149768 0 1 0
1570 524 1 -1.054 6.039089202240206 3.4424248475668073 18.25338002017481 1 0 0
340 114 1 -1.054 4.314511419120519 17.315660192681584 26.328581824181576 1 0 0
1608 536 2 0.527 9.945849018220088 16.625818574061817 23.800024779837912 0 0 1
4 2 1 -1.054 7.052331121914987 11.779701951629633 30.73585590327142 1 0 -1
1838 613 2 0.527 13.71525390085765 15.82329789200677 23.3074322962538 0 0 0
1924 642 1 -1.054 6.901398452097432 5.283062827015929 22.263680980333966 0 0 -1
328 110 1 -1.054 10.989286550170366 11.325197327676992 24.351352774866548 0 0 -1
1827 609 2 0.527 3.4087919432903186 12.55458925307035 27.097602410504734 1 0 0
1695 565 2 0.527 5.754391707985684 15.072445987484175 31.49838129849472 0 1 0
747 249 2 0.527 6.621235218690013 10.830770508706816 24.455344526238257 1 1 0
2184 728 2 0.527 4.369709924165935 13.84258368787015 30.934137898093773 0 0 -1
117 39 2 0.527 15.202146573419313 3.253955322291963 30.031186120199905 1 0 0
628 210 1 -1.054 17.44902885724735 17.013421115187413 23.282373100631503 1 1 0
1661 554 2 0.527 8.798121914121815 11.326480907755863 28.074387387833816 0 0 0
1305 435 2 0.527 14.588059239429786 5.419362502306434 26.73900999562656 0 0 0
314 105 2 0.527 5.398854454706539 3.035950324261626 19.961857206057886 0 0 0
346 116 1 -1.054 6.720703725105592 6.0573745996905535 19.351274562368957 0 1 0
1638 546 2 0.527 4.912108574794158 6.090019795283451 28.139790191297884 1 0 0
284 95 2 0.527 9.922328118066886 4.514551098302469 29.35253616147684 0 0 0
778 260 1 -1.054 4.277711215895216 12.701258342022475 21.76995091738557 1 0 -1
823 275 1 -1.054 8.42888157753907 17.109244293266684 21.06697233737787 0 0 0
223 75 1 -1.054 11.400136679623786 10.520858259174936 19.43267015476747 0 1 -1
2327 776 2 0.527 11.794100630904069 13.482087339979406 26.519768948680927 1 0 0
191 64 2 0.527 12.285482584902642 9.031838783250326 29.288966883123337 0 0 0
551 184 2 0.527 12.470934614005731 9.37458582461937 20.437313268027843 0 0 -1
845 282 2 0.527 10.52921100077742 14.67751142607723 18.061207130377376 0 0 -1
190 64 1 -1.054 12.744006630459475 8.972747528501378 28.450820282081985 0 0 0
879 293 2 0.527 4.796059429000909 7.361369850476404 17.71388053094445 0 0 1
99 33 2 0.527 12.7871429367617 9.767953880753835 25.035010809289417 0 0 0
334 112 1 -1.054 3.977668443246321 10.104255881167987 29.76552062768505 1 0 -1
1354 452 1 -1.054 16.65404686939252 16.32878694554146 20.561089837441223 0 0 0
2288 763 2 0.527 4.605256651851876 9.844362868615665 19.57224958300212 1 0 0
1300 434 1 -1.054 16.812382327462302 8.483520451585813 17.640399673087536 1 0 0
2148 716 2 0.527 4.947955059309088 15.322152989159763 29.10253676663799 1 1 0
2197 733 1 -1.054 15.05996891543553 6.94995654762868 30.104523534954367 1 0 -1
1963 655 1 -1.054 15.294379035593352 4.071896690233167 24.812283041680836 0 0 -1
193 65 1 -1.054 9.074397230497814 6.250487424946375 17.905051205664776 0 0 0
388 130 1 -1.054 11.858873704469977 6.501277332013112 27.585508673104634 0 0 0
2341 781 1 -1.054 14.471208281277487 14.388591106592374 29.564147544074956 0 0 -1
483 161 2 0.527 13.49629547340863 12.269569596123826 18.813394887012663 0 0 0
2385 795 2 0.527 7.542453400622493 3.785251942769148 30.30222897490112 0 0 0
520 174 1 -1.054 17.240385542092252 14.70607511166675 24.492795946201618 0 1 0
1198 400 1 -1.054 7.917300621287693 14.84695472640146 22.60276623469592 1 0 -1
630 210 2 0.527 17.07346597038178 16.833748262143047 22.420458973706808 1 1 0
744 248 2 0.527 15.059744405557394 10.152136658963684 20.670090638046332 0 0 0
1301 434 2 0.527 16.908227596943377 8.68823326391081 18.570524477648167 1 0 0
527 176 2 0.527 9.457166374633536 12.233400535479168 21.199954039350665 0 0 -1
991 331 1 -1.054 12.026171149018518 6.6049087442342636 17.61420415817058 0 0 0
889 297 1 -1.054 15.613501235473379 3.530763612574689 20.43806046820717 0 1 -1
730 244 1 -1.054 5.812229713356018 3.0679318723764357 24.94728808162548 0 0 0
2386 796 1 -1.054 7.987365001736738 8.367629948382131 29.80055200020651 1 1 -1
1607 536 2 0.527 9.955941240217886 16.73011166394005 22.289759529346632 0 0 1
1335 445 2 0.527 6.19593496575761 11.981987354048387 22.254667915108143 0 1 0
1143 381 2 0.527 13.535885260639935 11.165017127457565 21.89051771829947 0 1 0
2131 711 1 -1.054 9.147899270467303 6.4790784988949515 28.21044751567944 1 0 0
1870 624 1 -1.054 8.261279860579403 15.60416755592872 18.830259385423943 1 0 0
454 152 1 -1.054 15.50775562093472 7.213258640535938 21.634185773042894 0 1 -1
1102 368 1 -1.054 13.037170300684023 4.145549849860494 27.328533492494685 1 1 -1
1822 608 1 -1.054 3.1933243470126493 13.101230458669432 25.205478910754472 0 0 0
1671 557 2 0.527 13.611185215947813 4.741838084496646 22.292288892953884 0 0 -1
225 75 2 0.527 11.688525681318321 11.357600488861973 19.797252185536323 0 1 -1
1757 586 2 0.527 14.727278819738983 9.545066038010457 29.09669337451715 0 0 -1
293 98 2 0.527 6.192381190787073 3.7685383647235566 28.068460565203893 0 1 0
1066 356 1 -1.054 16.918205659147848 10.603133993422468 26.224852173908374 0 0 0
522 174 2 0.527 17.179288181756768 15.532122760090376 24.013068713533855 0 1 0
390 130 2 0.527 10.92430858246496 6.594904031657888 27.770029298935412 0 0 0
175 59 1 -1.054 15.553758633092473 15.730018664959694 27.300051435584194 0 -1 0
746 249 2 0.527 5.815365840738383 10.187130112303201 25.563578085220534 1 1 0
1603 535 1 -1.054 9.092275363414018 16.653230116252267 25.58898477930296 0 -1 -1
2276 759 2 0.527 8.054023866149025 9.511114481326398 25.259164705568267 0 0 0
543 181 2 0.527 13.848630880662371 10.114999312034781 17.597064070573285 0 1 0
2151 717 2 0.527 6.706634514111435 6.456931920844749 25.324113908685014 0 0 0
1245 415 2 0.527 3.998201104725967 10.65669684407725 31.498435304694212 0 0 -1
97 33 1 -1.054 13.434383791837847 9.217314759495222 25.475580459377937 0 0 0
1303 435 1 -1.054 15.21742250679025 6.081973697397617 27.023745061023526 0 0 0
1871 624 2 0.527 8.04794648697308 14.778735767926115 19.265434080349813 1 0 0
2147 716 2 0.527 5.927999602771498 14.580880191908012 28.218281501196138 1 1 0
1756 586 1 -1.054 15.613171932661864 9.90714160635231 29.078791241012922 0 0 -1
6 2 2 0.527 7.466379751886101 11.651378211591663 29.882437750350874 1 0 -1
162 54 2 0.527 14.683059630286271 16.428335083014282 29.519933456360214 0 0 0
458 153 2 0.527 11.688079756243637 5.740643600154995 31.351836713805014 0 1 0
1478 493 2 0.527 11.791879752393298 17.044037879436775 28.993673897140525 0 0 0
2105 702 2 0.527 13.559640228335631 6.588572244590942 24.72263423094696 0 1 -1
1474 492 1 -1.054 12.323579181794079 15.84300750645604 18.956122479487384 0 1 0
341 114 2 0.527 4.5319333045241 17.06764538524313 25.430003956495106 1 0 0
538 180 1 -1.054 17.26915858976887 3.7711403864743502 22.405592437405083 0 1 0
2104 702 1 -1.054 12.634713446630917 6.352674406726644 24.79396769653669 0 1 -1
115 39 1 -1.054 15.103579958376807 3.88096048551406 29.31468423395941 1 0 0
1427 476 2 0.527 12.724572329166161 13.578789959791765 21.41236185940128 0 1 0
890 297 2 0.527 15.068475114895215 4.25301353738585 20.125766533142027 0 1 -1
1561 521 1 -1.054 3.1283914436845843 16.159970087257975 18.049607531056612 1 0 0
216 72 2 0.527 10.391619039230541 15.27456263182993 28.176581436439015 1 0 0
1515 505 2 0.527 10.520997144486904 9.278972200914282 31.13462855566125 0 1 0
2241 747 2 0.527 7.626230134091298 12.090992731824597 19.581642090152627 1 0 0
1660 554 1 -1.054 7.887404145302852 11.109021109849746 28.27320969905538 0 0 0
1636 546 1 -1.054 4.673922669333171 5.177239305231934 28.30204008304907 1 0 0
2240 747 2 0.527 7.147845413752842 13.175869982410061 18.640329426044083 1 0 0
622 208 1 -1.054 12.244142509241048 12.597974621771895 28.25782370793747 0 -1 -1
2383 795 1 -1.054 7.945198494086811 3.6932741982623787 31.165688453779353 0 0 0
2316 772 2 0.527 3.5442455800047483 12.72026975934468 18.84315007354124 1 1 0
456 152 2 0.527 16.39062722908492 6.9124329003977465 21.419087182190275 0 1 -1
2239 747 1 -1.054 7.564815154812082 13.041951033176794 19.49146266676115 1 0 0
2388 796 2 0.527 7.849683904633756 8.560904540756793 30.727867819102393 1 1 -1
2275 759 1 -1.054 8.56533657728107 8.705379787886704 25.333842518886442 0 0 0
1475 492 2 0.527 13.106578289739524 15.305504650587336 18.836836944022316 0 1 0
506 169 2 0.527 16.548171266852457 7.526933060371521 29.25215492756758 0 1 0
2052 684 2 0.527 13.820451566747403 6.429722486595037 20.573465322403905 0 0 -1
1670 557 2 0.527 12.382359155287165 3.9382851393295497 22.661299998315435 0 0 -1
1288 430 1 -1.054 16.243447020329036 12.568606070676626 30.725072422452975 0 0 -1
2287 763 1 -1.054 4.704872069602238 10.793613076369365 19.64454535660893 1 0 0
624 208 2 0.527 12.669750069181148 11.912079843606001 28.77224803818107 0 -1 -1
2132 711 2 0.527 8.954365280249117 6.93330070790361 29.030479590691634 1 0 0
2050 684 1 -1.054 13.6530152538752 5.681814189341349 20.000033513500973 0 0 -1
689 230 2 0.527 8.700121373867027 11.179515576296804 31.81927618920465 0 1 0
219 73 2 0.527 10.349362384060818 8.574786766993356 23.638884407479047 0 0 -1
177 59 2 0.527 15.206342224178956 15.487969945274882 26.4415993155959 0 -1 0
444 148 2 0.527 4.481575963390103 7.26612189500753 22.744566367286573 0 1 0
1760 587 2 0.527 4.653049816807666 8.06913070680558 24.756293902754443 1 1 -1
743 248 2 0.527 15.419187596534785 8.721612547660271 20.329090090182774 0 0 0
824 275 2 0.527 8.381903118513602 16.462729398548333 21.771271571276372 0 0 0
1859 620 2 0.527 14.380742961295423 14.631552361989247 31.372739879592586 0 0 0
803 268 2 0.527 10.47894390239406 13.756249744441766 30.71695800730106 1 0 -1
224 75 2 0.527 10.542629824816771 10.708240286723345 19.050838058372868 0 1 -1
1964 655 2 0.527 14.506707730271334 3.9522734556463903 24.281726678092255 0 0 -1
2163 721 2 0.527 4.629173687840675 16.572592152332035 18.803895209612204 0 1 0
1142 381 2 0.527 14.690041574877487 11.086812607816649 22.867086864353183 0 1 0
2387 796 2 0.527 7.976585867372526 9.22385216301452 29.372775073085897 1 1 -1
921 307 2 0.527 15.754828260464869 9.166986718259524 23.414591077896624 0 0 0
1839 613 2 0.527 12.383713119596175 16.461033485487548 23.64235422660319 0 0 0
1604 535 2 0.527 8.248165214493572 17.009326040159742 25.866292480518993 0 -1 -1
505 169 1 -1.054 17.218300512564646 7.818919706881954 28.63417727411848 0 1 0
920 307 2 0.527 16.156020376803692 10.098876713600738 24.538204001123553 0 0 0
877 293 1 -1.054 4.379313816728106 8.168285413229428 18.01626465372978 0 0 1
2361 787 2 0.527 6.102519183273781 7.9545178907853895 28.664689868698275 0 1 -1
999 333 2 0.527 14.71546300973413 7.992713557407671 25.002587932323273 -1 0 0
2342 781 2 0.527 14.124635159135735 13.777592575195692 28.913921707428067 0 0 -1
1428 476 2 0.527 11.211209822973764 13.546964590131525 21.387844536099166 0 1 0
217 73 1 -1.054 11.202663984660086 8.310420284533084 23.295063933484784 0 0 -1
2097 699 2 0.527 2.957280752961573 6.18537570407643 20.55342814491521 1 0 0
329 110 2 0.527 10.957805285713007 12.233341144098901 24.652200816087223 0 0 -1
2161 721 1 -1.054 5.544386358029418 16.78678862786571 18.984813585956083 0 1 0
98 33 2 0.527 13.134407160441727 9.173985522714077 26.383524500441176 0 0 0
482 161 2 0.527 12.410687896363244 13.078870617020172 18.136365807754558 0 0 0
722 241 2 0.527 15.475471813908843 14.708679839345017 21.726695997183775 0 0 0
116 39 2 0.527 15.84369027045475 3.7011520733514707 28.734915768122157 1 0 0
540 180 2 0.527 16.67967215858539 3.6820079581237755 21.65673533155295 0 1 0
992 331 2 0.527 11.109768041424497 6.328665151708851 17.603222651928895 0 0 0
1477 493 1 -1.054 12.083735886703819 16.34908024458757 28.403691131651847 0 0 0
1289 430 2 0.527 16.130155027304546 11.71369280367744 30.30972435553852 0 0 -1
1012 338 1 -1.054 8.421204658735018 17.079283418820616 29.835282917671066 0 0 0
2149 717 1 -1.054 6.8784595304624006 6.014899744570581 26.155564169677298 0 0 0
347 116 2 0.527 6.950132300692308 5.545464601503324 20.12686239045714 0 1 0
1479 493 2 0.527 12.842360826390765 15.964416242732462 28.842721408669405 0 0 0
802 268 1 -1.054 9.987042417105915 13.262425441664082 30.060912068489813 1 0 -1
215 72 2 0.527 9.163775219562451 16.025430756054377 28.646130917881187 1 0 0
1141 381 1 -1.054 14.146992776556244 11.710768713801697 22.38542036374924 0 1 0
751 251 1 -1.054 8.6986173190495 10.475937899566553 18.87707493236112 0 0 0
161 54 2 0.527 13.933099415038333 17.31857020599957 30.487880399036698 0 0 0
2228 743 2 0.527 8.359058641594428 14.413749754448867 27.15687146031172 1 0 0
997 333 1 -1.054 15.11360321152481 7.280325772829802 24.50237397117474 -1 0 0
844 282 1 -1.054 10.442670786939926 13.725770525072233 18.007116138154004 0 0 -1
2343 781 2 0.527 15.303982105832034 14.002851776104086 29.83602749322646 0 0 -1
2203 735 1 -1.054 3.4091120360775244 4.2267902260403485 24.09273361572052 0 1 0
493 165 1 -1.054 10.060183773793192 6.6440524951088396 21.443500307223175 0 0 0
742 248 1 -1.054 15.633170976738642 9.628582225453467 20.11035989758674 0 0 0
2096 699 2 0.527 4.267390644677038 6.472329260879314 19.851181906613185 1 0 0
218 73 2 0.527 11.536020803790477 7.683114890345118 23.93661438481697 0 0 -1
2051 684 2 0.527 12.984188364096427 5.99233441229666 19.389727369906844 0 0 -1
2328 776 2 0.527 12.08608105771638 13.771845206897094 25.062831113180593 1 0 0
139 47 1 -1.054 10.254016909358445 10.801477441596798 27.196378381532554 0 0 0
1293 431 2 0.527 6.9758439253135185 13.545093775447002 31.86248826168407 0 0 -1
1070 357 2 0.527 15.7249186850061 14.996508133874105 17.989953665995365 1 0 0
2146 716 1 -1.054 5.01565003451045 14.866926314117169 28.26324428660633 1 1 0
2214 738 2 0.527 17.459372949948474 11.50103295213623 23.30475825018909 0 1 -1
1759 587 1 -1.054 4.816981792320579 8.738610063676493 25.42048473871015 1 1 -1
623 208 2 0.527 11.650514627280637 13.026819452640545 28.874203337775803 0 -1 -1
192 64 2 0.527 12.53202709049258 8.099010145533748 28.122379286683007 0 0 0
2289 763 2 0.527 5.230238364826198 11.03849094581726 18.88280336750531 1 0 0
745 249 1 -1.054 6.544447486685201 10.78763876315169 25.408480978383196 1 1 0
1037 346 2 0.527 17.22083059167373 10.95254362324722 19.826944092300963 0 0 0
214 72 1 -1.054 9.435875275757393 15.27073564869047 28.123998083556984 1 0 0
846 282 2 0.527 9.57197357256609 13.584708544797886 17.635345158656854 0 0 -1
294 98 2 0.527 7.535224575687871 3.1370313429129038 27.768709772589503 0 1 0
1426 476 1 -1.054 11.980516025410045 13.394798799559428 20.838991786979946 0 1 0
2199 733 2 0.527 14.82207731893551 6.4322657207883225 29.335348915397937 1 0 -1
495 165 2 0.527 9.953289908390069 5.71318718963825 21.63917682021338 0 0 0
2277 759 2 0.527 9.262061216152679 8.919908136372399 25.95414742161465 0 0 0
459 153 2 0.527 12.996348874677428 6.262492554777339 30.796872060560183 0 1 0
2150 717 2 0.527 6.633135642429366 5.103214547018647 25.997855100875263 0 0 0
457 153 1 -1.054 12.443492223375406 6.283260254782204 31.577989253868076 0 1 0
336 112 2 0.527 3.1946810747166703 9.586854639850744 29.577232219983856 1 0 -1
160 54 1 -1.054 14.788428465912986 17.20138736865661 30.074472343839275 0 0 0
2182 728 1 -1.054 4.171813399498337 12.925151181588443 31.122234962384333 0 0 -1
521 174 2 0.527 17.215915708132012 14.031846674038297 23.813794436581254 0 1 0
980 327 2 0.527 5.269421497050592 16.16718036513614 20.848531739799817 0 0 -1
2111 704 2 0.527 10.070102775258928 2.9546998692065785 22.866915849500096 0 0 0
1071 357 2 0.527 14.662217413659308 14.03456136747828 18.47699016970318 1 0 0
1513 505 1 -1.054 11.39149915503924 9.119291558149166 30.769999756230348 0 1 0
1693 565 1 -1.054 5.100957926143364 15.669046260886502 31.133253533749297 0 1 0
2204 735 2 0.527 3.7402249693849074 5.098074197486223 23.8748935028646 0 1 0
1965 655 2 0.527 16.000116492707093 4.175916673575213 24.17405088896531 0 0 -1
1826 609 2 0.527 4.108448979248705 13.045392285510838 28.347191317279936 1 0 0
1823 608 2 0.527 4.09550755195292 13.413287909090425 25.135397199385125 0 0 0
335 112 2 0.527 3.878397360234995 10.892663035769601 29.231867938635126 1 0 -1
981 327 2 0.527 4.71308723904737 14.777735632069836 21.07616203350573 0 0 -1
2006 669 2 0.527 15.841517302877236 10.195388083963731 17.962729310569856 0 1 1
1872 624 2 0.527 7.417372212270289 16.042012375267475 18.719184763418433 1 0 0
301 101 1 -1.054 8.407022556553418 3.160339776808522 26.04734355487303 0 0 0
1694 565 2 0.527 5.503546853415517 16.535002996622723 31.198574830828242 0 1 0
1290 430 2 0.527 17.17333110207312 12.767372496918203 30.61537587252643 0 0 -1
1572 524 2 0.527 5.207422225658251 3.208880930707564 17.841053594198073 1 0 0
1700 567 2 0.527 11.300367495020238 17.170079822659396 31.50226189514754 0 0 -1
2205 735 2 0.527 3.2207598026995496 3.822917200588774 23.245599686113295 0 1 0
993 331 2 0.527 11.990130713199617 7.550231792991008 17.760119171728093 0 0 0
690 230 2 0.527 10.210771502350692 11.209875569327812 31.913586730328028 0 1 0
507 169 2 0.527 17.412239724962717 7.044097396181609 28.106670077636053 0 1 0
2236 746 1 -1.054 7.935461082299225 19.582270669152273 6.16090916417885 0 0 1
2238 746 2 0.527 8.835553627477143 19.26548372391489 6.085375933233722 0 0 1
1416 472 2 0.527 3.6322217458840713 26.72286329720736 11.97937001204769 1 -1 0
1390 464 1 -1.054 11.19323142991042 30.020511593319014 9.985214555506335 0 0 1
801 267 2 0.527 8.951330777957345 22.134614438965784 4.428690879511381 0 -1 1
1795 599 1 -1.054 16.8975463143575 18.322717501476596 13.676262349334912 0 0 0
255 85 2 0.527 16.24613898870013 28.108784843670314 5.407630453150661 0 0 1
1431 477 2 0.527 7.289042940888615 19.017241838673087 12.046564786373398 0 0 1
101 34 2 0.527 3.457466413904459 27.856978203670742 5.072887872465184 1 0 0
1034 345 2 0.527 17.13937789147083 20.94418685081692 11.906704831709117 0 1 0
1554 518 2 0.527 6.780223826500978 22.78374309783935 3.606260998294603 0 0 1
1099 367 1 -1.054 7.6552905515640965 23.67168285719623 12.865869878220769 0 0 1
496 166 1 -1.054 13.773055236631713 23.509221771143075 9.217455331234554 0 0 0
822 274 2 0.527 6.144599889310099 27.84506228819059 14.236264119570784 1 -1 1
1974 658 2 0.527 8.328375359708607 29.35529940216081 8.522571783584965 1 0 0
1061 354 2 0.527 9.129297710321861 30.94360234557044 14.700673584999567 0 -1 0
143 48 2 0.527 6.217304301495807 30.7841481225204 3.7235829525998705 1 -1 1
710 237 2 0.527 12.077064630974036 22.436992554030383 9.101096506337395 0 0 1
1541 514 2 0.527 8.490881395624406 31.169455205429216 10.460364364888303 0 0 1
1370 457 2 0.527 16.677561070972693 22.965965114889777 12.043681847277359 0 -1 0
1973 658 2 0.527 8.22435747402774 29.576536136873507 7.028545409752494 1 0 0
2339 780 2 0.527 8.622533097362027 28.45678666324465 15.690283354420185 0 0 0
2141 714 2 0.527 7.171103374631065 29.549294237808105 16.956185416472223 0 -1 0
1938 646 2 0.527 5.152492876466425 25.585797358538485 10.883904125961898 1 -1 0
1552 518 1 -1.054 6.426978648363767 23.60302273669921 3.9529951215309804 0 0 1
2039 680 2 0.527 15.578559258304894 20.836229011287593 9.301155721167877 0 0 0
1697 566 2 0.527 6.384327645897199 20.0896114112267 9.452645445993959 1 0 0
806 269 2 0.527 9.039566604515315 21.905141166441894 8.348791910469286 0 0 1
144 48 2 0.527 5.251598319102067 30.018155627762027 4.602529756392313 1 -1 1
1383 461 2 0.527 14.720277858865238 21.617804700265857 4.935068318568812 0 0 0
154 52 1 -1.054 11.43802641270847 18.00880988787706 9.792141846995086 0 0 0
253 85 1 -1.054 16.027010702111475 27.994448649106523 4.482894904646874 0 0 1
1868 623 2 0.527 6.759395171229435 23.785487332205193 5.6949767169635725 1 -1 1
10 4 1 -1.054 8.019578309373147 27.400751788310444 11.155186911570496 0 -1 0
1101 367 2 0.527 7.8078407671008225 22.787291025414213 13.198744191517225 0 0 1
2347 783 1 -1.054 13.155629284140803 20.226489983051046 6.965685061440818 0 0 0
2027 676 2 0.527 13.836763754381034 24.827563407608814 14.801245912711892 0 0 0
1439 480 2 0.527 10.489921237081578 23.769222139817643 11.687473290446865 0 0 0
1623 541 2 0.527 12.438879340579454 19.100548860824183 5.580747723358758 0 0 1
1715 572 2 0.527 14.05528638025941 26.20374060191689 7.278034245081795 0 0 0
1867 623 1 -1.054 7.061341178274147 23.981355352965522 6.581932261497939 1 -1 1
1432 478 1 -1.054 17.138350204984988 20.70474736023604 6.17881413756305 0 0 0
1820 607 2 0.527 10.295610830871976 27.44151419019763 14.3451369177516 0 0 0
915 305 2 0.527 4.409900768239358 20.3310072820506 5.2073158805802535 0 0 1
967 323 1 -1.054 14.98767260932664 24.726405441617004 4.859088112306668 0 0 0
270 90 2 0.527 16.10748808065684 31.480133015525965 16.181988547289315 0 0 0
1523 508 2 0.527 12.647832108210038 29.799184023524404 4.899950231538992 0 0 1
1936 646 1 -1.054 4.682577687863716 24.755505753858714 10.96150145011321 1 -1 0
1371 457 2 0.527 15.44049872251612 22.418095503810292 12.722942953344623 0 -1 0
492 164 2 0.527 7.8836462853786395 20.932750951524824 14.186117717254357 0 0 1
684 228 2 0.527 3.6586283006046876 17.891971937365017 11.459224402099414 0 0 0
491 164 2 0.527 9.384141087808992 20.80478002524 14.341097751009494 0 0 1
1100 367 2 0.527 8.029374527096364 24.247088798018538 13.533099206362232 0 0 1
502 168 1 -1.054 5.0883142439109434 21.315198745465565 8.669713906451406 0 0 0
1716 572 2 0.527 15.102529073229032 26.503306953982616 8.32942513786248 0 0 0
1031 344 2 0.527 13.442384905415715 20.256265272476384 3.081577976954969 0 0 0
1162 388 1 -1.054 14.867711299350333 19.39595094245206 15.12810142682939 0 0 0
2142 714 2 0.527 6.964253041936276 30.59252909700664 15.878802350574658 0 -1 0
1972 658 1 -1.054 8.365940836789502 28.894107081255235 7.684647944533189 1 0 0
1096 366 1 -1.054 16.810359246500525 23.9588085825725 16.449334443067812 0 0 -1
1134 378 2 0.527 9.382311693839643 17.653927135193435 16.42029513520138 0 0 0
1438 480 1 -1.054 11.069954529213192 23.121508519237082 12.087790937624549 0 0 0
289 97 1 -1.054 14.34570305526005 29.233342769683723 8.395273810101411 1 0 1
1440 480 2 0.527 11.291578518425865 22.523938585935994 11.373634963876984 0 0 0
268 90 1 -1.054 15.422601548080262 31.97940436582627 16.626830461571515 0 0 0
2194 732 1 -1.054 6.987022894345388 23.451187042998498 10.219270282403503 1 -1 0
914 305 2 0.527 4.71578662291525 20.57933508321979 6.669043342002739 0 0 1
1380 460 2 0.527 7.085728105723064 25.860963280969294 6.366967385809642 0 0 0
196 66 1 -1.054 14.606148616250525 28.07526329302268 15.865980641970559 0 0 1
1587 529 2 0.527 17.298002126713328 29.914785481356468 6.463496824463048 0 0 0
1158 386 2 0.527 5.644866489159528 22.088101023809124 14.135684074316977 1 0 0
1696 566 1 -1.054 6.849680586743762 19.511722983326088 10.057391180990134 1 0 0
490 164 1 -1.054 8.711668997506571 21.23257262667233 13.811002900327306 0 0 1
1382 461 2 0.527 15.619829163961183 21.951919963806205 6.105988675128575 0 0 0
1445 482 2 0.527 3.9848248876770773 29.966466796646408 14.39486014376478 0 -1 0
1542 514 2 0.527 7.888132663722871 29.811523790289918 10.75121884584243 0 0 1
102 34 2 0.527 2.979207153220968 26.67744257435448 4.253226958038387 1 0 0
1032 344 2 0.527 12.264266514755404 19.651325300852456 3.815038780265328 0 0 0
1610 537 2 0.527 12.688522027435148 19.46013036800094 12.668059504175245 0 0 0
2301 767 2 0.527 16.24953212603573 27.17571645568546 12.94413792134227 0 0 0
11 4 2 0.527 7.852344948233792 27.32769809266189 12.094826184065708 0 -1 0
1378 460 1 -1.054 6.784261123272902 26.756827912874343 6.216070059648095 0 0 0
1509 503 2 0.527 8.508577873318103 19.68027136550809 10.65629523968223 1 0 0
800 267 2 0.527 9.130492252904816 23.283898696916978 3.459708396274854 0 -1 1
1522 508 1 -1.054 13.312750519670052 30.03495500931202 4.253017980999567 0 0 1
1676 559 2 0.527 16.502000928782394 26.491353373694267 3.0902453291719016 0 -1 1
816 272 2 0.527 4.51955824945672 29.515856368926435 6.576545483827491 1 0 0
2195 732 2 0.527 7.452966119261557 23.598713698906607 11.042288285661051 1 -1 0
2237 746 2 0.527 7.952021053582106 20.175365900807392 6.912034728246356 0 0 1
497 166 2 0.527 14.105967242953685 23.42994540246059 10.111385231795296 0 0 0
2399 800 2 0.527 15.798086755247041 30.07658977310001 9.850830964562906 0 0 0
884 295 2 0.527 4.49461359048032 18.572555083861886 6.548683236897853 0 0 0
1216 406 1 -1.054 13.915236514273605 20.27617670163361 10.21115598494286 0 -1 0
679 227 1 -1.054 16.822648645609654 31.037955624237703 13.484622646673717 0 -1 0
2155 719 1 -1.054 4.036602168008249 30.585856245714773 7.756842371717224 0 -1 0
1999 667 1 -1.054 11.143929609037793 20.292031702526508 14.907393892542128 0 0 0
1528 510 1 -1.054 15.342161339598293 20.685938443233795 3.603791686352893 -1 0 1
2349 783 2 0.527 13.805162504386223 20.885617026626072 6.720973011437859 0 0 0
2046 682 2 0.527 10.472285375011673 26.092764441561727 4.623952869868983 1 0 1
437 146 2 0.527 17.37820375463928 22.355861158671118 13.757644033712523 0 -1 -1
805 269 1 -1.054 8.109017371593572 21.944630558230507 8.12801038555305 0 0 1
1164 388 2 0.527 15.234729897619827 18.864209564897493 15.834341034145682 0 0 0
373 125 1 -1.054 16.148594756392 18.0229165185944 17.248901622543926 0 0 0
1369 457 1 -1.054 16.32484694800462 22.17416248481969 12.449720198740573 0 -1 0
2363 788 2 0.527 10.941530977706478 18.555947948336556 6.632918812801039 0 0 0
431 144 2 0.527 4.971531027549471 24.155357285964406 7.31019429604338 0 0 0
387 129 2 0.527 7.53893796509505 22.537785714824032 16.770039318056448 1 -1 -1
2398 800 1 -1.054 16.753474537193643 30.048013490269284 9.902244576360943 0 0 0
291 97 2 0.527 14.07487609534252 29.337581806033896 9.307421152975841 1 0 1
683 228 2 0.527 3.9382546849042805 19.37961707811715 11.43470853638934 0 0 0
709 237 1 -1.054 11.700257182832475 21.614639018638073 9.414108852641693 0 0 1
1714 572 1 -1.054 14.574508325272877 25.79125356195891 7.9683159773777605 0 0 0
1796 599 2 0.527 16.061652915601954 18.654123718569387 14.004405497628055 0 0 0
1400 467 2 0.527 17.19843118006326 28.269094448852783 9.68143544295161 0 0 1
2040 680 2 0.527 16.94695263824896 21.23443195177085 9.811855230779804 0 0 0
799 267 1 -1.054 9.621060520863441 22.628281811179072 3.955425122711519 0 -1 1
504 168 2 0.527 4.63035900827009 21.27629743990517 9.50935042565336 0 0 0
1287 429 2 0.527 8.181843328790242 24.42259106041471 15.487432496173062 0 -1 0
578 193 2 0.527 10.793743501378177 30.216457779717963 6.9488693946651985 1 -1 0
1381 461 1 -1.054 14.788343021665332 22.192612559840548 5.697425754490297 0 0 0
2003 668 2 0.527 15.85687497876158 28.524129524502598 7.599319462984037 0 -1 1
1391 464 2 0.527 11.637229129014546 29.393516692182594 10.556151695963024 0 0 1
1611 537 2 0.527 13.93261712996241 19.783260817477434 13.467868349864078 0 0 0
1622 541 2 0.527 12.571538628141598 17.65492554578621 5.151265759689436 0 0 1
1005 335 2 0.527 6.305835214791958 31.433997939214308 12.435215159480293 0 -1 1
1352 451 2 0.527 11.36449688535768 23.16623715975811 3.9177530711588355 1 0 0
184 62 1 -1.054 13.172237748477611 27.08013592871235 5.882052518606805 0 0 1
1752 584 2 0.527 10.301363550436736 26.844130348633712 6.492162469359257 0 -1 0
815 272 2 0.527 5.377650046803372 28.28228219228337 6.392552719703471 1 0 0
821 274 2 0.527 7.40398552568513 28.529922682992343 13.749649214211285 1 -1 1
480 160 2 0.527 11.799544020519017 26.952301335606705 12.22866169034126 0 0 0
1218 406 2 0.527 14.021768744791803 20.561769136077977 11.118522328037008 0 -1 0
158 53 2 0.527 13.184543136619277 17.57403924152916 16.39929805155755 0 1 0
2045 682 2 0.527 10.070555752964143 25.079628455536444 5.674690188535233 1 0 1
986 329 2 0.527 3.7344372960541916 24.901428752452965 16.452318462426554 0 0 0
1157 386 2 0.527 5.387028220879117 20.646432544139408 13.752289372143661 1 0 0
179 60 2 0.527 5.797913986460608 31.72077637813581 8.254164668619147 1 -1 0
1937 646 2 0.527 5.253971491169873 24.115750352132565 10.536709811133523 1 -1 0
254 85 2 0.527 15.459027108019507 28.73697016473286 4.277268498457955 0 0 1
1595 532 2 0.527 14.495688445851075 28.25522821622304 13.806992620353991 0 0 0
272 91 2 0.527 3.3628859989678044 18.11101577534796 8.238654305361134 0 0 0
1609 537 1 -1.054 13.274727836476877 20.181141140398985 12.897694042762648 0 0 0
295 99 1 -1.054 9.876148257659075 31.3006951517568 16.3678978861386 0 -1 -1
1392 464 2 0.527 10.268875314440365 29.776774671116087 10.034039448895417 0 0 1
290 97 2 0.527 13.544506223103397 29.370680985664762 7.889855541839022 1 0 1
1821 607 2 0.527 10.156435584764488 28.717860951051897 13.542984036711374 0 0 0
2140 714 1 -1.054 7.311002631258914 29.71213746428699 16.023374494171804 0 -1 0
385 129 1 -1.054 7.299861328966234 23.462287641601904 16.703976157050757 1 -1 -1
577 193 1 -1.054 11.59241140430379 29.80554709071886 6.6179498001635135 1 -1 0
694 232 1 -1.054 6.553811939913929 17.57122083148256 4.674783798412268 0 0 1
760 254 1 -1.054 11.349281369427654 24.413848849882847 14.869735071731847 0 0 0
1596 532 2 0.527 14.026868610887046 27.669581610294784 12.492037793753218 0 0 0
2044 682 1 -1.054 9.74348994058233 25.837075838030344 5.189378701707781 1 0 1
186 62 2 0.527 12.699993223882041 26.690350368254876 5.146336464345198 0 0 1
2060 687 2 0.527 9.708571706473604 25.843132089947524 8.91107973033327 1 0 0
185 62 2 0.527 13.944549974184905 27.482916182411138 5.485154954965971 0 0 1
2001 667 2 0.527 11.960733984505264 20.35981796335681 14.412963498775667 0 0 0
579 193 2 0.527 11.457652148621776 28.868844843586537 6.7616670451267415 1 -1 0
1078 360 1 -1.054 3.284286914378928 28.120728103767732 9.191202468447162 0 -1 1
1844 615 2 0.527 8.80662241287729 25.57085038464112 3.6020790978223354 0 0 1
2028 676 2 0.527 14.965210619719326 24.85582412383176 15.810051673694009 0 0 0
432 144 2 0.527 3.654339485252569 24.026809467604295 6.575101169458064 0 0 0
524 175 2 0.527 3.4480273524648406 23.40335910572378 13.704612806272067 0 0 0
296 99 2 0.527 9.135278571772604 31.303136163509066 16.973977023205848 0 -1 -1
1530 510 2 0.527 15.843750391098377 20.05234307022439 4.116813232264265 -1 0 1
523 175 1 -1.054 4.324099761024498 23.77188195311701 13.59097382426154 0 0 0
883 295 1 -1.054 4.4982756478167145 17.65264753904683 6.813225309214457 0 0 0
696 232 2 0.527 6.912782538233158 18.111540818605995 5.378644736710525 0 0 1
1920 640 2 0.527 16.149997411311254 29.023207236495388 16.608202872368956 0 -1 -1
1429 477 1 -1.054 6.921652008145716 18.51532722996224 12.774116432974544 0 0 1
263 88 2 0.527 7.594347400316934 31.588133180776573 6.470321815819961 0 -1 0
703 235 1 -1.054 12.176127240491283 26.37002321951131 9.2444671963713 0 0 1
156 52 2 0.527 12.15074130606244 17.82699431404933 10.40468275020209 0 0 0
2400 800 2 0.527 16.94849077076937 30.194617459968974 10.827826470702934 0 0 0
503 168 2 0.527 5.007177990317537 22.228282600868773 8.394177009864173 0 0 0
814 272 1 -1.054 4.7532164115960756 28.84514504800473 5.934847734108551 1 0 0
1750 584 1 -1.054 10.499329325403867 27.34208975039776 7.2853029510244784 0 -1 0
484 162 1 -1.054 15.091206373427367 18.07935160188567 7.465380435370421 0 0 0
1325 442 2 0.527 11.794492292851706 23.01640342375746 6.268811447187734 0 0 1
1484 495 2 0.527 5.156800009640331 24.89221768035005 15.124855141407513 0 0 0
1379 460 2 0.527 7.301743367645904 27.28915325114233 6.820278350418242 0 0 0
2364 788 2 0.527 10.804497065662543 18.38340630023685 8.130694225504268 0 0 0
197 66 2 0.527 14.346209943715202 27.927759677633247 16.775321270674475 0 0 1
1687 563 1 -1.054 14.129286883026811 30.65791994455087 11.13271861748705 0 0 0
894 298 2 0.527 12.974244053444522 23.66696488358673 12.557348519510695 -1 0 0
1326 442 2 0.527 12.347893607111923 23.868175144317107 7.391358546753017 0 0 1
1062 354 2 0.527 9.482550577176355 31.231313839308527 13.256958053475298 0 -1 0
166 56 1 -1.054 11.780403495255467 17.56467259545548 12.93823411981792 0 0 0
2379 793 2 0.527 16.772567295464526 25.484978824871433 5.627932890618539 0 -1 0
1507 503 1 -1.054 9.227597585718406 19.44170322630214 11.241377860602276 1 0 0
1446 482 2 0.527 5.043748253735439 29.53767431709023 13.401533200767597 0 -1 0
1688 563 2 0.527 14.1528267856619 31.614718331249577 11.147161576447022 0 0 0
708 236 2 0.527 12.815271304167611 29.42747863323268 15.461233372535814 0 0 0
854 285 2 0.527 6.60258218243594 18.158402487024738 15.646042710240117 1 0 0
155 52 2 0.527 10.76340417259707 18.42787437460379 10.32645972541172 0 0 0
478 160 1 -1.054 12.658479952212353 26.689153663302186 11.898195066430585 0 0 0
1869 623 2 0.527 7.381954612666713 23.14388783680731 6.9167172193553945 1 -1 1
2299 767 1 -1.054 17.029790701801762 26.63918541699855 13.083983448739284 0 0 0
1156 386 1 -1.054 5.741976433169885 21.19095790176125 14.454948384984148 1 0 0
761 254 2 0.527 11.35955201348238 23.566390499655583 14.424836593248802 0 0 0
807 269 2 0.527 7.664156759480938 22.00520909942766 8.973383118421552 0 0 1
262 88 1 -1.054 8.179885703484205 31.10368524296846 5.888358844944166 0 -1 0
1399 467 1 -1.054 17.300480489989972 27.32437569600424 9.566030839467437 0 0 1
1698 566 2 0.527 6.735521005003006 18.635982237997847 9.688241472237795 1 0 0
1414 472 1 -1.054 2.97340126577587 27.1569822666047 12.52133134533268 1 -1 0
469 157 1 -1.054 5.1563706858604395 19.70726297840676 3.5101398334666243 0 0 1
1553 518 2 0.527 7.072917828115292 24.2655834865605 3.7080427284015998 0 0 1
198 66 2 0.527 14.52834680849104 27.215866565362873 15.451722188301087 0 0 1
2156 719 2 0.527 3.3311137176559407 31.180158394907508 7.501270900734036 0 -1 0
1285 429 1 -1.054 8.608020558558282 25.032351992592034 14.885111637095378 0 -1 0
2002 668 1 -1.054 16.54815459615805 28.22206006288347 7.010157059630789 0 -1 1
264 88 2 0.527 8.641807365582773 31.78112601022884 5.394467966102058 0 -1 0
2340 780 2 0.527 8.723007456889787 27.321881663492178 16.687166279429626 0 0 0
913 305 1 -1.054 4.074284535546695 20.169136624711207 6.089010522949467 0 0 1
1430 477 2 0.527 5.977275832612989 18.658452130305022 12.711709131608266 0 0 1
2157 719 2 0.527 3.607028970003433 29.92064363189256 8.29460144618835 0 -1 0
711 237 2 0.527 11.691014897050474 21.04637345026184 8.643904546168528 0 0 1
479 160 2 0.527 12.51139233390081 26.49986037351765 10.971502506382848 0 0 0
706 236 1 -1.054 12.285002983324858 30.21569880654812 15.343971949448735 0 0 0
471 157 2 0.527 5.590083867319734 18.927388053257697 3.856425516542672 0 0 1
1644 548 2 0.527 4.576571995966502 28.26828021373747 15.665817018931426 1 0 0
1797 599 2 0.527 16.656170464691428 17.6969421037819 12.99335047758848 0 0 0
1286 429 2 0.527 8.131600739323616 25.854695274290428 14.999135952479891 0 -1 0
2348 783 2 0.527 13.65168013878094 19.571428086934645 7.4566568088772565 0 0 0
705 235 2 0.527 13.036946843513803 26.156651613497097 8.884344990926287 0 0 1
2059 687 1 -1.054 8.869319245500392 25.48841766544816 9.204437541569048 1 0 0
838 280 1 -1.054 17.31384898364315 24.560439384225106 11.102427380180945 0 0 1
1193 398 2 0.527 3.5483173697276484 21.38718870158536 16.709323417314437 0 0 1
820 274 1 -1.054 6.9766088390590415 27.674620910253495 13.794747781386405 1 -1 1
1483 495 1 -1.054 5.439283188948371 25.297834191912436 15.94455284451324 0 0 0
892 298 1 -1.054 13.840024975495359 24.070242933861316 12.493976614420369 -1 0 0
1594 532 1 -1.054 14.65699840151046 28.28667076322882 12.864009955087289 0 0 0
1643 548 2 0.527 4.87766755084143 26.94000471891693 16.326805456467305 1 0 0
485 162 2 0.527 14.88343790223781 17.55215317905182 8.2368205861478 0 0 0
1192 398 1 -1.054 4.273002846524579 21.16066994242415 17.292200785595583 0 0 1
762 254 2 0.527 10.431000260834471 24.683387150706366 14.851439718888534 0 0 0
430 144 1 -1.054 4.04888567568309 23.937612938062294 7.4426281505747545 0 0 0
1444 482 1 -1.054 4.366999262168488 29.19141370688598 13.983203393094904 0 -1 0
2196 732 2 0.527 7.458488297200458 23.982833436123137 9.577944876040771 1 -1 0
1258 420 1 -1.054 3.252389207183949 20.986057578425104 10.902015487947253 0 -1 0
707 236 2 0.527 11.393811182812142 29.93937636628955 15.557628102736544 0 0 0
1642 548 1 -1.054 4.578192532092668 27.829169326453837 16.516349096055883 1 0 0
1808 603 2 0.527 8.182903641357697 19.770349268231534 16.754808827761963 1 0 0
893 298 2 0.527 13.662547526436136 24.989762158437372 12.29595654226347 -1 0 0
2362 788 1 -1.054 10.346488414059662 18.725955806645615 7.363156765409515 0 0 0
2338 780 1 -1.054 9.130130434666327 27.671376635553628 15.894493634692683 0 0 0
2061 687 2 0.527 8.584220258547646 26.086609839953866 9.895169387715935 1 0 0
1460 487 2 0.527 11.740933617121533 31.39159412534518 9.076634645533868 0 -1 1
935 312 2 0.527 14.391599335097126 30.933588295336435 7.15661711581964 1 -1 0
1415 472 2 0.527 3.4804115944738743 27.67084579930311 13.149909570633701 1 -1 0
1194 398 2 0.527 5.022997573060857 21.044846473068027 16.708832417675136 0 0 1
704 235 2 0.527 11.749107276078963 26.88248706228611 8.557982967073109 0 0 1
1751 584 2 0.527 9.716800921774434 27.87187436336236 7.437630037747315 0 -1 0
498 166 2 0.527 14.2747419923191 24.230510560415716 8.837615008389344 0 0 0
840 280 2 0.527 17.00232850985254 25.17203649219384 10.435246935422814 0 0 1
1125 375 2 0.527 6.183051302305135 26.794792402983816 8.937357311717644 1 -1 1
968 323 2 0.527 14.48385264413504 25.479916571770772 5.166679097046318 0 0 0
1324 442 1 -1.054 11.535049795813913 23.654888546895535 6.933079588439773 0 0 1
855 285 2 0.527 7.877670825935321 18.049854118318166 14.837187827222804 1 0 0
2026 676 1 -1.054 14.401704228833337 25.4273209064157 15.288440924973303 0 0 0
1351 451 1 -1.054 12.313080873931431 23.163941118988163 3.789655711865758 1 0 0
12 4 2 0.527 7.151879899737095 27.50319483933329 10.764251246048616 0 -1 0
1819 607 1 -1.054 10.564983231362023 27.852446691991886 13.52367553613712 0 0 0
1621 541 1 -1.054 11.98618765968809 18.410275844996555 5.096166258051808 0 0 1
1124 375 2 0.527 5.117840530278487 27.6672578491778 9.5666506158618 1 -1 1
682 228 1 -1.054 4.029286316264095 18.60125935829037 11.984343252456052 0 0 0
858 286 2 0.527 11.429955842652427 24.741582365949732 16.716205658041794 1 0 0
1689 563 2 0.527 14.216597500235277 30.401825798813476 12.050878959138725 0 0 0
1060 354 1 -1.054 9.102252177153897 30.560401319262645 13.823945971384436 0 -1 0
1153 385 1 -1.054 11.901735739403106 26.533840004635707 3.4664280432702728 0 0 1
2000 667 2 0.527 11.394808306287844 20.478778237752245 15.812054850719967 0 0 0
1485 495 2 0.527 6.013317600033381 24.647279657370085 16.34889068480279 0 0 0
1123 375 1 -1.054 5.930833513337982 27.202863292177938 9.765662876532529 1 -1 1
525 175 2 0.527 4.330513997920313 24.10304159027494 12.692910357217576 0 0 0
2004 668 2 0.527 17.11833939084555 27.68790065313278 7.563138884069535 0 -1 1
1217 406 2 0.527 13.1046975365713 20.694843390577084 9.921379144388197 0 -1 0
1004 335 2 0.527 7.4691270912707255 30.73202356082166 13.102945675693901 0 -1 1
1003 335 1 -1.054 6.617936993836006 30.567826042302187 12.697063460856137 0 -1 1
1807 603 1 -1.054 8.307998814848855 20.513058584535507 17.34553705525818 1 0 0
1508 503 2 0.527 9.215503130933637 20.11373818767032 11.922882499902904 1 0 0
1540 514 1 -1.054 8.138237168301242 30.390101962525883 10.030857240656914 0 0 1
853 285 1 -1.054 7.5551218604700345 18.127287226612914 15.735069811304385 1 0 0
1098 366 2 0.527 16.62412759499879 23.927481177499388 17.387717179018665 0 0 -1
407 136 2 0.527 12.140458025475937 31.94176455250423 13.924883715535511 1 -1 0
142 48 1 -1.054 5.296435891908234 30.533523419613317 3.797165585507503 1 -1 1
969 323 2 0.527 14.505571837296594 23.966283930212093 5.184695135460344 0 0 0
1163 388 2 0.527 14.445399578346755 20.129694640903757 15.574754308876642 0 0 0
1875 625 2 0.527 4.310903206619402 23.547158569996355 4.344728345932484 0 -1 0
1526 509 2 0.527 8.560101570555336 17.56386400295137 12.881964515951992 1 0 0
1433 478 2 0.527 17.114836433054773 20.555331212220565 7.123984862614662 0 0 0
486 162 2 0.527 14.891651501556087 17.50826401825475 6.723583547934306 0 0 0
1800 600 2 0.527 9.202304215150452 18.15837548335707 3.5078380301442715 1 -1 0
1873 625 1 -1.054 3.375209935750721 23.366498919341453 4.434539145905517 0 -1 0
398 133 2 0.527 17.381436222593145 26.78998003855778 15.299291648427596 -1 0 0
2038 680 1 -1.054 16.467573453560544 21.035477923195934 9.007592425279288 0 0 0
1919 640 2 0.527 17.233704681613823 29.71010904262163 17.411710511296242 0 -1 -1
1097 366 2 0.527 17.001397967479544 24.880062425190637 16.273205578633487 0 0 -1
2300 767 2 0.527 17.03676992114682 26.028975404131522 12.346541381690683 0 0 0
2074 692 1 -1.054 3.632821228732295 31.207072959143822 16.741399407385508 0 0 0
2235 745 2 0.527 14.579251739911646 18.40022792468853 9.802437232148943 -1 0 1
1918 640 1 -1.054 16.98632427739362 29.47963011468991 16.516217236953807 0 -1 -1
1252 418 1 -1.054 13.805691397113465 21.107886542431125 17.032390274966716 0 1 0
1524 508 2 0.527 13.483499778085514 30.963323450638534 4.411770966507728 0 0 1
1259 420 2 0.527 2.964983524854617 21.757637581156942 11.390163083991961 0 -1 0
681 227 2 0.527 16.755113058963957 30.423169140344264 14.215172007268883 0 -1 0
1658 553 2 0.527 4.139765980484066 18.722447995229977 15.249705405315497 0 0 0
1002 334 2 0.527 12.614030631696547 30.931665152868426 17.2422200457956 0 -1 0
1657 553 1 -1.054 4.890848692800664 18.129528184160357 15.273085720679338 0 0 0
1353 451 2 0.527 12.499620984620137 22.313008005430596 3.3929928336147976 1 0 0
1253 418 2 0.527 13.763069471080383 21.993881695463067 17.392142607063914 0 1 0
1805 602 2 0.527 9.943949264454528 20.654567043274632 3.252001602231205 0 -1 1
1035 345 2 0.527 17.246796139775107 19.461467329552562 12.192858913889186 0 1 0
438 146 2 0.527 17.473424872704324 23.003239016718332 15.122823494492337 0 -1 -1
1254 418 2 0.527 13.004975052561708 20.68443743266934 17.341857505903242 0 1 0
934 312 1 -1.054 14.206519407300226 31.864312755909964 7.282009171069675 1 -1 0
2345 782 2 0.527 16.322171345211668 31.795094025148273 9.471265314074627 0 -1 0
1030 344 1 -1.054 12.491622162850376 20.3218457525291 3.170882345209462 0 0 0
1804 602 1 -1.054 9.284144194139888 20.01309849964526 2.98856058680932 0 -1 1
1155 385 2 0.527 11.833478520803205 27.386721187082458 3.0372888776571947 0 0 1
386 129 2 0.527 7.775142825155064 23.884791619596406 17.41939471231519 1 -1 -1
1500 500 2 0.527 3.4047699211235574 19.6423535714259 17.32963455782221 0 0 0
1080 360 2 0.527 2.9553812632798255 27.525007394653805 8.518028039257874 0 -1 1
1529 510 2 0.527 16.004804995626692 21.248206126353374 3.2025632594563183 -1 0 1
2075 692 2 0.527 3.7708868568735525 30.537781454939427 17.411632619320912 0 0 0
1434 478 2 0.527 17.49580619040109 19.89407554414806 5.816512876764828 0 0 0
1874 625 2 0.527 2.9690169836337006 23.83685736226463 3.7065309012749292 0 -1 0
1635 545 2 0.527 17.17307274814447 22.070903050059137 19.272225775306616 0 0 0
1045 349 1 -1.054 12.600451082518958 30.62739763324818 20.719242886968033 0 0 0
942 314 2 0.527 4.241754149343825 27.826374495722916 26.35253558529744 0 -1 -1
1536 512 2 0.527 6.441516355696152 20.78524300263173 31.82951686957543 0 0 -1
1009 337 1 -1.054 16.588353356750922 26.058366737873513 26.86197616161163 1 0 0
1013 338 2 0.527 8.446546807361836 18.009597802819023 29.611455352777817 0 0 0
1692 564 2 0.527 11.359083001479583 30.50030459217053 24.700444986977438 0 0 0
1954 652 1 -1.054 8.848160632385843 24.9639439630989 18.750616243816804 0 0 0
1263 421 2 0.527 7.145888201834539 29.468825556242287 19.938871355764228 0 0 -1
1118 373 2 0.527 5.656620686452584 29.23253273499823 24.770698109724457 1 0 -1
1685 562 2 0.527 6.572694585860557 19.76861299364957 20.23337962756284 1 0 0
86 29 2 0.527 12.945412396747411 20.642143348038694 20.699494744767073 0 1 0
1227 409 2 0.527 17.348705584727583 31.037577987056657 27.148119153719556 -1 -1 -1
1810 604 1 -1.054 16.305690262960468 27.30614245224656 24.27190381924403 0 -1 0
614 205 2 0.527 9.94750927269326 22.673501730852472 28.081501288088177 0 1 0
1405 469 1 -1.054 13.996267092493094 23.541752981130216 18.2425831341341 1 0 0
887 296 2 0.527 5.157510618596799 24.950379126543417 26.126852525314042 1 0 0
1000 334 1 -1.054 13.18395724301231 31.218750975999804 17.955656221173818 0 -1 0
941 314 2 0.527 3.3056778432011944 27.17992960704425 27.35141020283131 0 -1 -1
230 77 2 0.527 6.667539485981575 18.92440987609828 25.43422701433601 0 0 0
1735 579 1 -1.054 15.714559963337415 19.00883247091847 21.139065077216152 0 0 0
610 204 1 -1.054 13.178224679391896 22.72669855658529 21.093460676455457 0 0 0
188 63 2 0.527 3.5617659900055623 25.382024268831948 23.55402789008251 1 -1 0
749 250 2 0.527 16.942759688832492 17.9564002735191 30.692513849661403 0 0 0
1094 365 2 0.527 10.59738467746371 18.596796879368707 22.868228427985862 0 0 0
303 101 2 0.527 9.131318317444531 31.633654527305737 25.95505463975826 0 -1 0
404 135 2 0.527 14.550061227174043 21.598151888035297 26.078830007935487 0 0 0
287 96 2 0.527 3.8908312965392047 25.678931697594933 29.166996005433667 1 -1 0
1344 448 2 0.527 12.457695435459245 29.150249430022328 26.338345968936643 0 0 0
1726 576 1 -1.054 11.177624551978539 28.474116582178937 20.77653222975384 0 0 0
440 147 2 0.527 15.418520728459708 29.34641260030798 21.877852054198875 0 0 0
51 17 2 0.527 3.041194246343828 17.812020735893462 31.772787075405446 0 1 -1
1093 365 1 -1.054 10.603482783600793 19.550553982450317 22.787382949473354 0 0 0
1502 501 2 0.527 11.380297047305943 28.289508367537913 17.682936106288757 -1 0 0
212 71 2 0.527 16.92225302795383 30.169681472944582 24.98870784411759 1 -1 -1
1225 409 1 -1.054 17.19903102182993 31.937569566347165 27.437667886666254 -1 -1 -1
2392 798 1 -1.054 7.1223074704775025 18.439726720475853 23.0368163613608 1 0 0
434 145 2 0.527 5.83242290686707 27.021334487445095 30.774647904022082 0 -1 0
307 103 1 -1.054 5.4741431513653165 24.244828618377298 29.29893275784393 0 0 -1
1341 447 2 0.527 13.60146069021413 24.435133028874297 31.893541158314513 0 -1 -1
611 204 2 0.527 13.67456704667397 22.50719623187028 20.304988195720988 0 0 0
1262 421 2 0.527 6.018282338338736 29.67145609340924 18.949262301180887 0 0 -1
1490 497 2 0.527 12.135322470823452 22.96874858455218 24.514596043760243 0 0 0
1598 533 2 0.527 14.609949671020793 18.56563472159221 27.743052199889966 0 0 1
851 284 2 0.527 7.655593262394127 21.291173344466408 25.390940921766507 0 -1 0
1902 634 2 0.527 16.944222166167364 20.29832898739008 23.461345280604654 0 0 0
1343 448 2 0.527 13.454122253673505 30.166732348251614 25.822811163562385 0 0 0
1517 506 2 0.527 17.06519380290691 21.559476266700152 26.15278852099447 0 0 0
247 83 1 -1.054 4.880755086633175 27.43539857936652 20.833587581084764 1 0 -1
732 244 2 0.527 6.230764740836269 31.948181225594297 24.112960825967612 0 -1 0
1044 348 2 0.527 15.568293219884312 31.139116373573785 27.518662247404365 0 0 0
258 86 2 0.527 14.408164651741535 28.30470478085944 19.897981376703214 1 0 0
1395 465 2 0.527 13.254322697954693 20.232274332286195 28.288955397271813 0 0 -1
468 156 2 0.527 7.097172201106709 27.716914163304104 18.452942705336756 0 0 0
1246 416 1 -1.054 7.3104877645017226 28.316888759417544 28.599665447843826 0 -1 0
441 147 2 0.527 14.002850043499564 29.732711315477964 21.505656074455864 0 0 0
2246 749 2 0.527 15.633075342491889 22.887520533074373 22.453090559670215 0 0 0
835 279 1 -1.054 4.687286711987689 19.088604432807223 29.916802773794487 1 0 0
1930 644 1 -1.054 11.938730169381863 29.017346937449688 30.912671404186966 0 1 0
1996 666 1 -1.054 7.155080843403537 31.6215190886793 22.608793122745347 0 -1 0
1491 497 2 0.527 12.095323184070649 24.236999329921765 23.688872020763498 0 0 0
2101 701 1 -1.054 12.057699205295906 27.72274163150513 27.71824126656812 0 0 0
1686 562 2 0.527 7.890396431105505 20.513884373760476 20.222771679440463 1 0 0
375 125 2 0.527 15.44259677591833 17.92626265871561 17.88800311016889 0 0 0
2306 769 2 0.527 12.566161397585084 28.219468439878447 24.337095675448374 -1 0 0
470 157 2 0.527 4.721788205325717 19.405873535502877 31.804581487867253 0 0 0
1182 394 2 0.527 7.10548132174098 23.89365492621976 23.616755639538283 0 0 0
857 286 2 0.527 11.860810819498916 25.799378585710116 17.709840983854264 1 0 0
1183 395 1 -1.054 5.2354239586589335 18.95193494220587 21.02820739041008 1 0 0
938 313 2 0.527 10.978636351552767 20.37013122499947 24.25758443372709 1 0 0
1968 656 2 0.527 8.07007416867236 25.5932668492459 22.32834317358185 1 -1 1
1119 373 2 0.527 6.826553619582728 28.527378692631068 24.118092001660614 1 0 -1
1959 653 2 0.527 9.349736199823482 21.26317717720476 22.11562600823453 0 0 0
2394 798 2 0.527 7.139522698327919 17.93127586068932 23.84762283599992 1 0 0
1727 576 2 0.527 11.748831094408754 29.242136930541086 20.786209113966017 0 0 0
1095 365 2 0.527 11.360214420115062 19.73953470062267 22.232523236077597 0 0 0
1512 504 2 0.527 16.893352048180596 31.49168277602908 31.43754309298062 0 0 0
1845 615 2 0.527 7.874568901490584 25.812201132707678 31.526055963103218 0 0 0
248 83 2 0.527 4.376380967234846 26.62974894157184 20.720622187211816 1 0 -1
629 210 2 0.527 17.098540316074292 17.87107321956991 23.522823856735947 1 1 0
439 147 1 -1.054 14.604349099109477 28.988342940091073 21.524105745902716 0 0 0
1167 389 2 0.527 14.974554030528695 24.6955715627386 29.142377192584078 0 0 0
1707 569 2 0.527 15.558339758208096 20.754711560525863 17.949074022514655 0 0 0
1339 447 1 -1.054 13.788954281966992 25.132060152257296 31.264760964220656 0 -1 -1
1811 604 2 0.527 16.303541537167135 26.98407057883803 25.17328658576099 0 -1 0
1701 567 2 0.527 11.766844311433507 18.42673327211884 30.79862739618374 0 0 -1
1728 576 2 0.527 11.319861302214996 28.058514938666164 21.62698492739507 0 0 0
2012 671 2 0.527 17.171968544344885 20.983372669804112 28.590286638042322 0 0 0
226 76 1 -1.054 9.192702907797372 30.104477013555872 30.1581699407863 0 -1 0
213 71 2 0.527 17.23565444448908 30.98337720546268 23.751146171749667 1 -1 -1
249 83 2 0.527 5.31087133857215 27.33222926210304 21.682458588883406 1 0 -1
1580 527 2 0.527 3.4341000134762787 18.745980400176627 26.477045085800405 1 0 -1
774 258 2 0.527 7.797612018314941 24.648394469351615 26.203160303329625 1 0 0
1318 440 1 -1.054 9.080801294771668 28.31276408737842 24.283438811839623 0 -1 0
1565 522 2 0.527 10.209469371770037 27.423205338740893 27.216495839328047 0 -1 -1
2393 798 2 0.527 7.7561892839844955 18.00422436570029 22.466941536321578 1 0 0
1121 374 2 0.527 5.289559354415581 22.02329957425207 21.639529957524623 0 -1 -1
1272 424 2 0.527 11.509297968020759 26.25614257010791 23.698462935098988 0 0 1
1843 615 1 -1.054 8.406268565176335 25.13397602001085 31.9426276630592 0 0 0
87 29 2 0.527 13.892923067017954 19.715554592750067 21.4312986473374 0 1 0
2307 769 2 0.527 13.397534510504016 28.16773978863627 23.072966290696186 -1 0 0
1122 374 2 0.527 5.995136681430704 21.276257470558377 22.751271272881375 0 -1 -1
1126 376 1 -1.054 5.23422898986896 30.387031773129287 29.70210166915843 0 0 -1
1393 465 1 -1.054 13.255434323226833 19.549215088852534 28.95951833242502 0 0 -1
836 279 2 0.527 5.507266431435353 19.42669004539526 29.556862284308863 1 0 0
257 86 2 0.527 13.600701384989586 27.872712194259925 18.692466668548995 1 0 0
1319 440 2 0.527 9.058279548450248 27.790691112216592 25.085410405228203 0 -1 0
1579 527 1 -1.054 3.076747818332076 19.62925551193255 26.56842523174305 1 0 -1
1185 395 2 0.527 4.898415916726755 19.706613782504945 21.511023303091285 1 0 0
1261 421 1 -1.054 6.954008949539731 29.476646823229956 19.001136277734034 0 0 -1
1108 370 1 -1.054 15.4985950911168 25.173954649240834 19.716859338324333 0 -1 -1
950 317 2 0.527 5.5213938479825995 30.563018334004802 26.891461396296002 1 0 0
433 145 1 -1.054 6.588284231437424 26.573558595553443 30.39465290875104 0 -1 0
1407 469 2 0.527 14.410752634318733 24.144223208097962 18.86020532531967 1 0 0
1043 348 2 0.527 14.189851961093728 31.66754280235459 27.183184637825192 0 0 0
2247 749 2 0.527 15.251204622353928 21.908404596700514 23.542763372769798 0 0 0
256 86 1 -1.054 14.49999520682392 27.988761920878602 18.99910810174005 1 0 0
61 21 1 -1.054 8.799561964875707 19.576268886712512 29.101311835491387 0 0 0
1181 394 2 0.527 8.29335242591679 23.447623842892604 22.790983973837122 0 0 0
2380 794 1 -1.054 17.09863653897757 22.28071962254903 31.16695055072269 0 -1 -1
850 284 1 -1.054 7.1273010265171 20.87959578044058 24.707027904784617 0 -1 0
1564 522 1 -1.054 9.31131914922133 27.264124111953734 26.92624571296249 0 -1 -1
856 286 1 -1.054 11.606538659820323 24.87871959163371 17.646924561281917 1 0 0
852 284 2 0.527 6.241496127806727 21.210105184095497 24.856490395315696 0 -1 0
996 332 2 0.527 4.420316149736408 20.9487225025578 26.51563737770531 1 0 0
333 111 2 0.527 12.507045861073369 21.35165619414787 26.51676881428741 0 1 -1
2178 726 2 0.527 6.181097052039442 21.87505578061252 27.999454951263182 0 0 0
1699 567 1 -1.054 12.031352578032736 17.528931400015203 30.999159334773168 0 0 -1
1328 443 2 0.527 14.495848061133918 28.844566137527586 30.392706289051645 0 -1 -1
467 156 2 0.527 6.226001111313314 26.780984156893382 17.642402152508065 0 0 0
1270 424 1 -1.054 10.746677475006834 25.699625735574536 23.54058706843898 0 0 1
1958 653 2 0.527 8.266747802910178 21.148921439559047 23.16727327853119 0 0 0
529 177 1 -1.054 12.477012270157084 24.924617508601074 27.534687569542434 0 -1 -1
2177 726 2 0.527 7.500390556131395 21.247327390633473 28.396067848748807 0 0 0
2162 721 2 0.527 5.521874240708868 17.691105618413403 19.297750959835305 0 1 0
1128 376 2 0.527 4.902590569720376 29.91507206061435 28.938232712219225 0 0 -1
1706 569 2 0.527 16.693347795773512 19.76303114687674 18.091224747255996 0 0 0
1997 666 2 0.527 7.4698913999846415 30.79457131454511 22.243721117242757 0 -1 0
1184 395 2 0.527 5.798813833371078 18.498130433421466 21.655008096594926 1 0 0
2245 749 1 -1.054 15.447590397126415 21.961235717787225 22.607419935417617 0 0 0
794 265 2 0.527 17.022738607261438 28.463791054359433 22.841292615494652 0 0 0
2085 695 2 0.527 3.424479178604298 21.611298759815853 23.356578783368114 0 0 0
793 265 1 -1.054 17.25503607837414 28.907167587399286 22.025399856232404 0 0 0
331 111 1 -1.054 13.0932418503124 21.597390279290984 27.232460775948695 0 1 -1
204 68 2 0.527 4.62064487078417 21.918459633034004 19.265329419017263 0 0 -1
2011 671 1 -1.054 16.64703325562488 20.408556559494997 29.147292172712255 0 0 0
1247 416 2 0.527 7.935724864906745 28.10564391386412 27.90635457820089 0 -1 0
951 317 2 0.527 4.177811197386667 29.957329483264317 26.545330206973993 1 0 0
1538 513 2 0.527 3.7562953497431133 29.29875813901574 22.00055202320437 1 -1 -1
288 96 2 0.527 3.6644208056995353 27.090206258215638 29.66591738083239 1 -1 0
939 313 2 0.527 10.486149567851948 20.681469518591918 25.654869409510717 1 0 0
1705 569 1 -1.054 16.32028535706669 20.548856539102324 18.49063513833551 0 0 0
1503 501 2 0.527 11.42686555037877 27.772028188484605 19.10488044392431 -1 0 0
1955 652 2 0.527 9.575096858482517 25.3316617894397 18.248049729591006 0 0 0
1160 387 2 0.527 15.191516494135058 18.5578369388854 25.438688473463948 0 0 0
1329 443 2 0.527 15.624936808758399 28.720029728899107 29.391941938466736 0 -1 -1
773 258 2 0.527 9.063753005050291 24.47784733962672 25.39095297597698 1 0 0
1535 512 2 0.527 6.994215253896936 21.589673554500123 30.672237528583835 0 0 -1
1176 392 2 0.527 3.857490586593612 30.373033390333553 19.797768840286793 1 0 0
940 314 1 -1.054 3.5881232080239913 27.132345749050053 26.43807220491803 0 -1 -1
1677 559 2 0.527 15.994883055760084 27.167171376350623 30.926336830968943 0 -1 0
1832 611 2 0.527 14.46650828388365 24.332870128630177 23.621104281985268 0 0 -1
772 258 1 -1.054 8.748591662639878 24.58116198175849 26.288853441424415 1 0 0
1566 522 2 0.527 9.257368645880897 26.314102713129316 26.82244558232187 0 -1 -1
1340 447 2 0.527 14.725790150110063 25.300587633365673 31.365571839833017 0 -1 -1
1055 352 2 0.527 12.410003136978046 24.193046151530112 21.027388468582757 0 -1 0
2381 794 2 0.527 17.394105849198496 22.592755244265824 32.022261865900276 0 -1 -1
1510 504 1 -1.054 15.957641206531408 31.29002739712771 31.43506833564708 0 0 0
501 167 2 0.527 4.260412688462413 28.891460743693493 31.192921695854878 0 -1 -1
675 225 2 0.527 10.890596528159952 23.656629693484845 30.290636936596606 0 0 -1
1327 443 1 -1.054 15.447057661476999 28.75675830994488 30.331748206365333 0 -1 -1
1957 653 1 -1.054 8.44378625627229 21.511637125719204 22.29933284623521 0 0 0
1489 497 1 -1.054 12.623841558040196 23.77272810228891 24.337983988700827 0 0 0
1675 559 1 -1.054 16.320846106998474 26.32996398303181 31.25657563410418 0 -1 0
228 76 2 0.527 8.566437700361215 29.774963530712 29.51362472392629 0 -1 0
2103 701 2 0.527 12.300940093965005 27.859527728513044 28.63385538972456 0 0 0
837 279 2 0.527 4.007364670288578 19.459096044855848 29.354070331360553 1 0 0
1817 606 2 0.527 3.155211460414701 31.686686143247158 25.31864607994303 1 0 0
613 205 1 -1.054 9.478286185000425 22.251641443679425 27.361717018523215 0 1 0
995 332 2 0.527 4.17625686356313 22.431007545491376 26.32816439517339 1 0 0
615 205 2 0.527 9.100175627978672 22.976668532404688 26.86412887374332 0 1 0
1127 376 2 0.527 5.920306931374691 30.956140490590528 29.353335100676794 0 0 -1
1161 387 2 0.527 14.677763931784312 18.122866652512972 24.08268729899796 0 0 0
888 296 2 0.527 5.814475996628131 24.398817614032176 27.374272428358445 1 0 0
1733 578 2 0.527 13.361474677861132 18.56662479598824 19.52692539045995 1 0 0
405 135 2 0.527 15.146297606044602 20.484316322369928 25.24471219220795 0 0 0
1690 564 1 -1.054 10.568208834905516 30.69351339830758 24.197042369615147 0 0 0
1998 666 2 0.527 6.420425442365098 31.867748161809715 22.046762318223294 0 -1 0
466 156 1 -1.054 7.119731190771606 26.892936190959745 17.96634515222709 0 0 0
1120 374 1 -1.054 5.128004702784892 21.559062547505775 22.460876329268373 0 -1 -1
1047 349 2 0.527 12.907225854869397 30.90802193087214 19.857056695830238 0 0 0
403 135 1 -1.054 15.135255694359302 21.43682049006715 25.338731757395536 0 0 0
937 313 1 -1.054 11.12670617695616 20.956999119797423 24.999128267846935 1 0 0
1175 392 2 0.527 4.113046336776523 28.904304101814724 19.53431946858091 1 0 0
1932 644 2 0.527 11.069242425887296 29.348368023153483 30.687633826280944 0 1 0
1599 533 2 0.527 16.06747316630244 18.96384998692473 27.64855373744099 0 0 1
1320 440 2 0.527 9.147465356157216 27.66798835447203 23.579133525709636 0 -1 0
1931 644 2 0.527 12.23692012772155 29.588097970379465 31.620874621794385 0 1 0
674 225 2 0.527 11.21721450748435 24.019647859868215 28.857661467468517 0 0 -1
308 103 2 0.527 6.001114747889327 23.445770744458443 29.29316725397718 0 0 -1
1966 656 1 -1.054 8.339314006157593 26.260468592820224 21.697013211114353 1 -1 1
1011 337 2 0.527 16.167725403663038 25.3888631627458 27.401478608023993 1 0 0
1174 392 1 -1.054 4.133181719740164 29.763592151888005 19.1130779797477 1 0 0
1109 370 2 0.527 15.043770934652457 26.002857783586542 19.567593179574956 0 -1 -1
2358 786 2 0.527 10.408469112828914 20.843202544139835 17.73507261486707 1 0 0
2356 786 1 -1.054 11.244626330310505 20.378219607942455 17.76436104597208 1 0 0
1501 501 1 -1.054 11.835441660964015 27.663474805502013 18.246097861648565 -1 0 0
1056 352 2 0.527 11.436292338073592 24.67823704661886 19.97460305547618 0 -1 0
1806 602 2 0.527 8.513554820252814 20.537268833895496 31.862510210063775 0 -1 0
612 204 2 0.527 13.696408569989096 22.36408261917901 21.81194589035679 0 0 0
1117 373 1 -1.054 5.880379526157326 28.462708003623803 24.24769941330682 1 0 -1
867 289 2 0.527 9.40486386256509 28.91426689994548 21.048428331064898 1 0 0
1042 348 1 -1.054 14.695033463217584 30.85698596432217 27.246549028554163 0 0 0
203 68 2 0.527 6.079428071535989 21.925945860253307 19.67002139257385 0 0 -1
62 21 2 0.527 9.243775073967466 19.843976937982085 29.905819690058998 0 0 0
229 77 1 -1.054 6.8301631186489695 18.15389897780593 25.978370793752156 0 0 0
2357 786 2 0.527 11.011518494006376 19.47972206919335 17.998003270502497 1 0 0
1534 512 1 -1.054 7.113666212608398 21.429877032724093 31.60841192235987 0 0 -1
1812 604 2 0.527 15.905108402050388 26.600594582548524 23.76400404668719 0 -1 0
891 297 2 0.527 15.055789332566444 31.84928045706733 20.357493592261264 0 0 -1
1831 611 1 -1.054 15.158544010411346 24.73864042931862 23.098933013165038 0 0 -1
447 149 2 0.527 3.4185536686636464 23.680610169662316 21.658514331041175 0 0 0
202 68 1 -1.054 5.257528272273337 22.401087595641073 19.792278736585395 0 0 -1
1732 578 1 -1.054 13.750791693637918 18.130779302985957 18.768837832462197 1 0 0
1271 424 2 0.527 10.730453437464764 25.57840443024913 22.591235600954334 0 0 1
332 111 2 0.527 12.642558955074643 22.316118690060073 27.675789331000544 0 1 -1
1691 564 2 0.527 10.03595371299399 29.901575944227723 24.27297229059822 0 0 0
309 103 2 0.527 5.9028094370204105 24.810376714628276 29.941292752746826 0 0 -1
2305 769 1 -1.054 12.668156751084094 27.735703925560387 23.51746484336632 -1 0 0
286 96 1 -1.054 3.285558922919456 26.417446327412698 29.10015810649203 1 -1 0
435 145 2 0.527 6.941558280907806 27.196150383799022 29.759198168596505 0 -1 0
1967 656 2 0.527 8.669059881628531 25.763362170500578 20.948428784522015 1 -1 1
2176 726 1 -1.054 6.726596512981569 21.676927608676564 28.76063913740699 0 0 0
1166 389 2 0.527 15.662286861012875 23.38688722559707 28.816418780948084 0 0 0
1180 394 1 -1.054 8.025094823214983 24.094755664167742 23.443275388563954 0 0 0
1394 465 2 0.527 13.889987584610326 19.85172061979972 29.609178525177775 0 0 -1
1684 562 1 -1.054 7.076973243819711 20.407449858721016 19.72957777255351 1 0 0
1809 603 2 0.527 7.790085054016544 20.293584344909874 18.120018928514455 1 0 0
1956 652 2 0.527 8.173069501228223 25.642132898600266 18.727431640951032 0 0 0
1736 579 2 0.527 15.851255811239472 18.134876347378544 20.773359308726988 0 0 0
1159 387 1 -1.054 15.191409286698786 18.805688321099186 24.51413696306023 0 0 0
1833 611 2 0.527 14.706707315054796 25.08533358475809 22.3295999893285 0 0 -1
1046 349 2 0.527 12.177050244234387 31.402893295453907 21.087433033156252 0 0 0
1010 337 2 0.527 16.866635713020038 26.729137605593245 27.48555550577138 1 0 0
1406 469 2 0.527 13.1677402475146 23.963677575350268 18.01509971001849 1 0 0
189 63 2 0.527 4.940366330439927 25.999681487469843 23.653228315879495 1 -1 0
1028 343 2 0.527 10.153881552997062 17.986555064040697 26.363853443813213 0 -1 0
1029 343 2 0.527 11.480052755319361 18.133127378746305 27.079162138696162 0 -1 0
1597 533 1 -1.054 15.362304596893079 18.549225328989607 27.151513019073185 0 0 1
2013 671 2 0.527 16.427406538856665 20.946551595464726 29.907917717945793 0 0 0
63 21 2 0.527 9.508102238853713 19.414371489468927 28.478426837282576 0 0 0
886 296 1 -1.054 6.00554913060619 24.681243861525097 26.479871932336273 1 0 0
865 289 1 -1.054 8.499835277433355 28.995704050653103 21.34928892253741 1 0 0
1342 448 1 -1.054 12.728025696484334 29.609272794698633 25.543081936425907 0 0 0
231 77 2 0.527 5.984676267878168 17.96468235763591 26.385279666312613 0 0 0
994 332 1 -1.054 4.866038574702311 21.79579694618114 26.520347817206606 1 0 0
866 289 2 0.527 8.213187431848096 28.094069086390128 21.49459296960351 1 0 0
531 177 2 0.527 13.413397333051227 24.773990320918763 27.663994736089442 0 -1 -1
949 317 1 -1.054 5.016066361715271 29.752956812225158 26.959800876354223 1 0 0
1165 389 1 -1.054 15.200684833407044 24.120923111834884 28.411029260519626 0 0 0
673 225 1 -1.054 10.959748530226516 23.283053419328702 29.41206731722361 0 0 -1
530 177 2 0.527 12.308876924669228 24.63473415186197 26.638069524137464 0 -1 -1
1511 504 2 0.527 15.912829897023066 30.36162205821671 31.20641737686411 0 0 0
499 167 1 -1.054 4.202638149128685 27.93614030995934 31.177086165054305 0 -1 -1
1110 370 2 0.527 16.352186198881096 25.428325481951703 20.06743530981258 0 -1 -1
1248 416 2 0.527 6.489433854037971 28.48811432373642 28.138386603464106 0 -1 0
187 63 1 -1.054 4.4925872291554025 25.171746268054747 23.47932328968426 1 -1 0
2102 701 2 0.527 12.22620003569401 26.79363884315225 27.56139335585555 0 0 0
227 76 2 0.527 8.755136038513601 30.85789873420586 30.554549464602857 0 -1 0
85 29 1 -1.054 12.98660534011783 19.789413138887113 21.13236906381387 0 1 0
1235 412 2 0.527 3.624609687552572 31.34876126977609 30.24951969020124 0 0 0
1737 579 2 0.527 15.942411249224651 19.605609462065637 20.42620689162866 0 0 0
1027 343 1 -1.054 10.681617566963768 18.613019768489117 26.85909323737112 0 -1 0
1054 352 1 -1.054 11.760731463252196 24.87453664162227 20.853483899972332 0 -1 0
302 101 2 0.527 7.802556363151446 32.021564788769794 25.3420314204609 0 -1 0
1154 385 2 0.527 12.538666432905464 26.050630490360653 32.03233803199565 0 0 0
500 167 2 0.527 3.824560113323578 27.704485805310924 32.02538974947673 0 -1 -1
1001 334 2 0.527 13.88212365246612 31.709705439420013 17.52235126006062 0 -1 0
92 31 2 0.527 30.78519870287868 13.340239456934773 3.4215521075941635 0 0 1
1322 441 2 0.527 26.458647622280054 14.430482311500777 17.17929085853178 0 0 1
24 8 2 0.527 20.78694810337999 17.011761891812846 11.643566356935448 0 1 1
1545 515 2 0.527 25.149001602999064 7.532439765761501 4.012350410837671 -1 2 1
739 247 1 -1.054 25.005007130690615 12.649746554295586 15.27927537065902 0 0 1
1573 525 1 -1.054 28.76934865327197 5.816024667223995 10.634076066141027 0 1 0
93 31 2 0.527 29.984502649709306 14.617595162941242 3.5598570240428007 0 0 1
136 46 1 -1.054 28.127641991684357 16.35691084414617 8.947362537683588 0 0 0
1077 359 2 0.527 31.513041713171802 11.261295934809917 3.0334151506390907 0 1 0
509 170 2 0.527 23.20781572481053 12.371066392155777 6.09712769676301 0 1 0
173 58 2 0.527 22.584779427725053 12.279473410302915 4.2072130382035375 0 1 1
1019 340 2 0.527 28.51069490024951 14.940428624003113 11.87977252941338 -1 0 0
59 20 2 0.527 19.414433311912134 12.384385813345869 9.379507663942409 0 0 0
1213 405 1 -1.054 26.069331908285243 17.09532330947134 7.339170452895206 -1 0 0
1076 359 2 0.527 30.19425912249524 11.33553442370954 3.7731320932298194 0 1 0
1284 428 2 0.527 28.42783067666697 9.872351640568713 7.837286252341667 0 0 0
60 20 2 0.527 19.480834550102145 11.289407775277901 10.422816970211652 0 0 0
1316 439 2 0.527 24.343388962101287 14.448812164496623 9.038320437786025 0 0 0
828 276 2 0.527 22.431466126553318 9.114824013262488 3.1013532544375546 0 0 1
1231 411 1 -1.054 31.8118848374557 9.964018281865798 12.246205066789166 -1 1 0
964 322 1 -1.054 22.08552783249347 16.847336972428394 6.2592405499632635 -1 -1 0
312 104 2 0.527 29.912524635970023 7.492148532285766 12.745321379817335 0 1 0
2 1 2 0.527 27.730907691707593 8.696130236736721 9.478942044723002 0 1 0
1059 353 2 0.527 22.670564207612664 5.706344648831615 8.938363902438965 0 0 0
137 46 2 0.527 28.825091391917645 16.23720910485828 8.302799404513816 0 0 0
639 213 2 0.527 26.167659621247616 6.182850351325364 13.772783058319282 0 1 0
952 318 1 -1.054 28.11822797985282 4.034435279057593 4.994579597202915 0 1 1
169 57 1 -1.054 21.090246265744767 4.415589510219975 4.737750187552258 -1 1 1
32 11 2 0.527 20.76758431859863 6.316905126748374 6.981287549671766 0 1 1
580 194 1 -1.054 30.42420754197058 11.252832150702073 17.01113011889641 0 1 0
53 18 2 0.527 29.958816072123135 12.932987402775803 9.58676146097882 -1 0 0
1075 359 1 -1.054 30.621446736706133 11.601485233075621 2.9588798543243584 0 1 0
58 20 1 -1.054 19.584277507268496 11.448255988191338 9.48457780387869 0 0 0
73 25 1 -1.054 18.98473045945095 10.86307520436619 12.46508487341839 -1 0 0
1020 340 2 0.527 29.43199711637252 14.21593839724465 12.837998086701631 -1 0 0
1702 568 1 -1.054 25.88072412402981 11.051686198309682 8.66865920548687 -1 0 0
1362 454 2 0.527 19.53408139698341 10.397098000374768 4.848039253387431 0 0 1
2372 791 2 0.527 19.07140111139328 6.855506025325426 10.337068031692567 0 0 0
323 108 2 0.527 22.336401965128054 15.484644105153835 9.383830358265836 -1 0 0
1771 591 1 -1.054 20.856750307743603 8.86590958092854 8.860638804927055 0 0 1
2202 734 2 0.527 21.878962720130225 15.84420217346084 4.573042125059064 0 0 0
2009 670 2 0.527 18.59876267576948 5.347496916657699 8.426599203325459 1 1 0
1679 560 2 0.527 29.81230999060068 4.4845261391300415 16.331008544120813 -1 1 0
2322 774 2 0.527 19.946397010508875 15.970309508390658 12.982396018552 0 1 1
2370 790 2 0.527 28.41464341125065 16.951536660183955 13.563963237104282 0 0 0
1773 591 2 0.527 21.657856475981255 9.380607172407414 8.958317388319983 0 0 1
1282 428 1 -1.054 28.790410758477364 8.999859507702764 7.990645141386503 0 0 0
47 16 2 0.527 23.32623879049695 10.492710416094356 6.1553050646089815 0 0 0
2030 677 2 0.527 23.36781552675594 8.128146010703412 11.725059744248064 -1 1 0
428 143 2 0.527 27.248862606190634 4.176568376798596 12.778797771182392 0 0 0
990 330 2 0.527 27.517830679150464 12.214859554948726 16.520287026115845 -1 0 0
2100 700 2 0.527 24.8861345074409 12.64125101761 12.426354777090543 -1 0 0
1345 449 1 -1.054 30.818260873048473 4.973952091416441 4.419661387874703 -1 1 0
265 89 1 -1.054 22.89815705978063 6.996933870161422 14.7946389785954 -1 0 1
74 25 2 0.527 18.55322428916739 10.121600710889169 12.040533587082471 -1 0 0
959 320 2 0.527 30.685797987171668 15.854197930377191 14.008777753912879 0 1 0
1946 649 2 0.527 28.017806154929666 3.075196918126682 3.4614294950230464 0 1 0
1682 561 2 0.527 23.844623941321075 3.8364861869298457 6.045349212471352 0 0 0
1092 364 2 0.527 18.2757371624382 14.715695509165046 6.062347482884915 0 0 0
786 262 2 0.527 26.454315337442047 16.2915980203377 11.321081469486854 -1 0 1
68 23 2 0.527 30.911844249211875 15.680710323322096 11.557791580555909 0 0 0
965 322 2 0.527 21.21141337554281 17.228804468749715 6.17780163530418 -1 -1 0
2029 677 1 -1.054 23.245239089667038 7.3721273269996175 12.299199588271634 -1 1 0
1543 515 1 -1.054 25.166529402614167 6.850324673553219 3.3410549551458395 -1 2 1
638 213 2 0.527 25.10662664543746 6.96914579115577 14.512937464160752 0 1 0
1857 619 2 0.527 25.071871055143454 3.0348245490727823 10.667908236835608 -1 0 0
2121 707 2 0.527 28.527329585924782 15.815599815100436 5.1195951136859605 0 0 0
1296 432 2 0.527 19.463382127737937 3.8749859554039485 6.907276648518637 0 0 0
510 170 2 0.527 24.572674284985688 12.956028221488717 5.802405932147508 0 1 0
2320 774 1 -1.054 20.144943913266104 15.059601786049935 13.200149057521378 0 1 1
734 245 2 0.527 27.754452030245936 9.439586691545383 15.235624383116516 0 0 0
702 234 2 0.527 29.06179495915704 12.47775738762897 14.290506556447292 0 0 0
903 301 2 0.527 31.47554481204599 16.33163900228665 8.656794274852167 0 0 1
827 276 2 0.527 23.814796597520164 8.975093036946436 3.700312476862206 0 0 1
1368 456 2 0.527 30.719633117582468 4.874078506735618 10.301938144828545 0 0 0
2064 688 2 0.527 17.804127996629177 17.460243661731006 4.625899732769262 -1 0 0
1519 507 1 -1.054 20.220206707192055 6.750295267235302 13.75761334422637 0 0 0
2115 705 2 0.527 25.64879699780719 3.2520168926795536 7.499435513001449 0 0 0
1376 459 2 0.527 20.757666412760898 14.358530102849066 8.997002285032748 0 0 0
559 187 1 -1.054 18.0675356900269 8.15132305223565 15.209118264880386 0 0 1
1681 561 1 -1.054 23.71376823971606 3.5703603880733734 5.135250517679273 0 0 0
862 288 1 -1.054 19.196954963821618 4.270051421678668 13.080160974372667 0 0 0
1917 639 2 0.527 31.644584604645395 12.934457602630498 14.105969907368948 -1 0 0
1772 591 2 0.527 20.14894242765284 9.493698138833494 9.005949887712859 0 0 1
266 89 2 0.527 23.084822460920016 7.775758251138299 15.31886642637916 -1 0 1
2099 700 2 0.527 25.93233220127304 13.108273925684164 11.436789159593042 -1 0 0
1951 651 1 -1.054 18.17626433908534 7.514970516935122 4.426484918965754 0 1 0
953 318 2 0.527 27.804731408228562 3.8608268048447765 5.882163839024376 0 1 1
31 11 1 -1.054 19.897701800230074 5.918262062925049 6.95651063036642 0 1 1
410 137 2 0.527 31.302717024709587 5.9534874580743296 14.186662137984094 -1 0 1
379 127 1 -1.054 24.859665910494357 9.870531861741735 14.683449553085204 0 0 0
126 42 2 0.527 20.285234096330278 9.689380834579087 16.272734247699866 0 0 0
924 308 2 0.527 25.738946270529667 14.090736657774311 7.616412318607816 -1 1 0
1178 393 2 0.527 23.152256862034008 7.570913688390635 7.090396520443773 -1 0 0
359 120 2 0.527 25.48043813744775 9.22835803639905 10.950299230780107 0 0 -1
1294 432 1 -1.054 19.09078394910744 3.4688588577969757 7.689873083147318 0 0 0
1241 414 2 0.527 22.69875306451413 11.746721631422757 11.014666879321085 0 0 0
1015 339 1 -1.054 22.642059073059087 16.25229558049098 10.98207340389801 0 0 0
124 42 1 -1.054 21.070548045064847 9.784352332536894 15.733764640467626 0 0 0
548 183 2 0.527 29.84028449827683 8.047395996106083 15.852196610866992 -1 0 0
514 172 1 -1.054 18.196751109749705 13.556913173496296 11.908186321897817 0 0 0
171 57 2 0.527 21.958960355037036 4.028344372041209 4.845466678036161 -1 1 1
2144 715 2 0.527 19.32884470104017 15.579012384547875 4.274271252593043 0 0 0
2053 685 1 -1.054 23.29207321280642 15.249709765716814 13.962114428351237 0 0 -1
1881 627 2 0.527 23.999866827941574 3.475839171114719 13.397608217803745 0 0 1
701 234 2 0.527 29.802068612283477 12.711277005338449 15.590254041589427 0 0 0
1650 550 2 0.527 17.703111248652018 15.024752887740869 16.454374166058972 0 0 0
172 58 1 -1.054 22.41073300447716 12.900617121042261 3.500025541874467 0 1 1
922 308 1 -1.054 25.897511254217335 14.28082403122756 6.69177740329345 -1 1 0
1058 353 2 0.527 23.35026208268856 4.821747233562177 9.961778885275535 0 0 0
1113 371 2 0.527 27.586452820302142 12.075775957899163 9.921010171538406 -1 0 0
450 150 2 0.527 22.886433697187236 12.802871413645391 9.537580011579898 0 0 0
826 276 1 -1.054 22.986865140986097 9.443135935912021 3.808438123806648 0 0 1
637 213 1 -1.054 25.98720471102061 6.607112730481787 14.611629439725611 0 1 0
1841 614 2 0.527 17.647053064397205 10.11833092179258 15.203165694862733 0 0 0
2279 760 2 0.527 17.906986284679146 16.31532097696948 11.542258495469879 0 1 0
324 108 2 0.527 22.48897364718251 15.68257460972621 7.890704245945077 -1 0 0
163 55 1 -1.054 28.20874087215887 11.492478840807044 13.237977448826921 0 0 0
2200 734 1 -1.054 21.30544987236999 15.468208822881339 3.905256381819492 0 0 0
1520 507 2 0.527 20.14000577932938 6.986261846508933 12.833430780490879 0 0 0
1295 432 2 0.527 19.748189935663824 3.6120580392000017 8.370708750184704 0 0 0
1921 641 1 -1.054 25.76471538763913 5.422890286074452 17.06102752293828 -1 0 0
508 170 1 -1.054 24.086247030829156 12.131641267555521 5.801729711549857 0 1 0
2248 750 1 -1.054 29.4263449236732 9.772368630771851 4.831202583551139 -1 0 0
1112 371 2 0.527 28.437524673671604 11.866648315908408 11.155442160295413 -1 0 0
242 81 2 0.527 21.44268633781015 10.125164355053624 14.069854157402347 1 0 0
2270 757 2 0.527 27.74272822416993 3.148011095531914 14.083944264091725 0 0 0
1866 622 2 0.527 19.1959009699656 13.571033669306194 14.35316001363964 0 0 0
429 143 2 0.527 26.42482831654565 4.706683537505609 11.624750362936332 0 0 0
1880 627 2 0.527 22.98891175189317 4.541207258434431 13.764814882439573 0 0 1
2056 686 1 -1.054 17.75540482343139 11.703961386788334 7.250288013165613 -1 0 0
581 194 2 0.527 29.490024768733974 11.264660084400784 17.219429013695585 0 1 0
1215 405 2 0.527 26.829997188203343 16.81568077052304 7.848497660657672 -1 0 0
46 16 1 -1.054 23.37612506381334 9.888076890794444 6.895680291879527 0 0 0
1323 441 2 0.527 27.738429819053138 14.716391377640493 16.422789990221197 0 0 1
16 6 1 -1.054 21.924014124182285 4.990241172022945 16.565187974000267 0 0 0
923 308 2 0.527 26.714490106001698 13.824824854186648 6.489697994896576 -1 1 0
241 81 1 -1.054 21.644184541299026 10.228834194908085 13.139866577721248 1 0 0
1913 638 2 0.527 28.042647770381187 16.565627013270102 2.977379301913761 0 0 0
1220 407 2 0.527 28.509303647079953 14.107886119002249 6.0182964976621935 0 0 1
1385 462 2 0.527 20.94708285394651 11.561254468221481 6.481344084261546 -1 0 0
2371 791 1 -1.054 19.79920366882112 7.1385994931484245 10.890590667238637 0 0 0
380 127 2 0.527 25.264023521848756 10.670444511492992 15.019396688877697 0 0 0
1179 393 2 0.527 23.535492202879624 6.736133364653232 5.887004407873659 -1 0 0
75 25 2 0.527 19.7947769117866 10.497751283705583 12.820878310482508 -1 0 0
1885 629 1 -1.054 29.110353952330726 16.188985948712528 17.049034248081497 0 0 0
1366 456 1 -1.054 31.253235215526026 4.324534050393713 9.727921131700175 0 0 0
322 108 1 -1.054 22.45883224684497 15.004018328806632 8.565151175694883 -1 0 0
1864 622 1 -1.054 19.00922190301847 13.27955690089813 15.245582570733305 0 0 0
1233 411 2 0.527 31.078044387021173 9.522834695416954 12.674061359021863 -1 1 0
48 16 2 0.527 23.368203014429845 10.453338301755906 7.668106757675989 0 0 0
2337 779 2 0.527 21.943578148411575 14.02160533777005 16.82392656371405 0 0 0
311 104 2 0.527 28.66535261258035 8.346955059020903 12.821135483209734 0 1 0
36 12 2 0.527 18.193428970566586 11.58962928525705 3.899659394394073 0 0 0
1836 612 2 0.527 24.438702697435367 9.085485954362717 5.831101539606853 -1 0 0
561 187 2 0.527 17.787767687095524 7.924699646308095 16.096021573049853 0 0 1
1583 528 2 0.527 30.639857618932155 3.7763643224682695 6.641751876987607 -1 0 1
149 50 2 0.527 31.368320815642875 10.924464023456412 6.832291506088779 -1 0 0
1977 659 2 0.527 30.592787584435527 16.247806592477083 5.643901548550625 0 0 1
943 315 1 -1.054 31.466288393268037 9.694156843039021 8.90715299534056 0 0 0
1360 454 1 -1.054 19.534578061050865 9.777988766661423 5.578059319924381 0 0 1
1544 515 2 0.527 24.28522260149429 6.477060628591111 3.3551284112034896 -1 2 1
2114 705 2 0.527 25.917189077698204 4.73950986976309 7.584349622058293 0 0 0
1384 462 1 -1.054 21.47267813368424 12.34425604795068 6.3173807437905865 -1 0 0
381 127 2 0.527 25.269692297231387 9.734843923265732 13.829228881100398 0 0 0
954 318 2 0.527 27.87851902081683 4.946302688974196 4.829463737277665 0 1 1
1892 631 2 0.527 27.768055731495622 3.1439825460248882 16.34777979287137 0 0 1
1678 560 1 -1.054 30.502032250024314 4.795786599281854 16.91720476218277 -1 1 0
1879 627 1 -1.054 23.36637801000063 3.7174425615552518 14.073289739603768 0 0 1
2335 779 1 -1.054 21.57420211545493 13.141051069380334 16.75750889540412 0 0 0
427 143 1 -1.054 26.70403296066452 4.918244608808619 12.51554353018181 0 0 0
310 104 1 -1.054 29.59157982285268 8.378977674996438 12.581754016479005 0 1 0
243 81 2 0.527 22.585367138534494 10.065598687544245 13.078585936326387 1 0 0
67 23 1 -1.054 31.681711921369867 16.246121971340475 11.49583009138649 0 0 0
1221 407 2 0.527 29.34600083970996 12.859524280842683 6.201082206933906 0 0 1
170 57 2 0.527 21.010029296226314 5.031441518449732 5.466116428932967 -1 1 1
1240 414 1 -1.054 22.618645606132254 12.42004154250063 11.690276884797957 0 0 0
2250 750 2 0.527 28.923047241074087 9.859340495594292 4.0216637228966885 -1 0 0
1018 340 1 -1.054 29.265586012397428 15.07610376276322 12.452448242007229 -1 0 0
958 320 1 -1.054 30.76721931795465 16.070251862395438 14.937711048451744 0 1 0
1317 439 2 0.527 25.479577856239935 14.649207893309116 10.018522663869888 0 0 0
945 315 2 0.527 31.461519615664272 9.942614457566894 9.831529459712495 0 0 0
1834 612 1 -1.054 25.227164448017483 8.73267993560445 5.418691818551066 -1 0 0
2321 774 2 0.527 21.080942678376964 15.059324927600743 13.400479148664449 0 1 1
1582 528 1 -1.054 30.681384879151253 2.998614356095909 7.198174658313652 -1 0 1
1960 654 1 -1.054 22.568568040420693 6.07586968418362 3.2164681453263726 0 0 1
1091 364 2 0.527 18.075277846241335 13.560464016971276 7.020019825649248 0 0 0
863 288 2 0.527 19.765410160974298 3.5373024112486586 13.317149114915944 0 0 0
165 55 2 0.527 27.37340633928271 11.835986022830314 12.921047125917791 0 0 0
17 6 2 0.527 21.197793309247714 5.501070802099299 16.922794189114146 0 0 0
2249 750 2 0.527 28.779069143774684 9.876779519439106 5.528596464744794 -1 0 0
1057 353 1 -1.054 22.791025408621998 5.5944102509400135 9.881330265509511 0 0 0
1232 411 2 0.527 31.925620387954822 10.775433704880143 12.741073755505269 -1 1 0
1283 428 2 0.527 29.715742125498586 9.154497536969687 8.180578640147218 0 0 0
1 1 1 -1.054 27.648790844757514 8.485648896628131 10.409092712363343 0 1 0
560 187 2 0.527 18.74708317778042 7.510241196379983 15.00065951714501 0 0 1
515 172 2 0.527 18.5091335543101 12.71466391961707 12.238730103814925 0 0 0
785 262 2 0.527 27.23977286460564 15.678207940407068 10.181481018412189 -1 0 1
547 183 1 -1.054 30.20133215368555 8.71493213694688 15.268873493064559 -1 0 0
1976 659 2 0.527 31.615037825539083 15.561374146400832 4.763166042966311 0 0 1
901 301 1 -1.054 31.026319840697553 15.570759376112134 8.288711517464467 0 0 1
733 245 1 -1.054 27.474513344492955 9.083817571280195 14.392245204112303 0 0 0
900 300 2 0.527 18.283798683151513 17.037756973600025 7.77179721968846 -1 -1 0
409 137 1 -1.054 30.771423849708526 5.635372104053685 13.4567607612372 -1 0 1
164 55 2 0.527 27.97847382036499 10.680655963448615 13.689803197493777 0 0 0
960 320 2 0.527 30.196917579123607 15.442217867092618 15.381056314759354 0 1 0
1090 364 1 -1.054 18.417825538156205 14.452964267103264 6.971747822035642 0 0 0
1151 384 2 0.527 21.24107974203463 4.751984039217797 10.05186715219682 0 1 0
1315 439 1 -1.054 25.102633487228687 14.00635057275691 9.41779542302585 0 0 0
1667 556 2 0.527 24.306328934692736 9.545087407388536 16.5219507911576 0 0 0
2119 707 1 -1.054 28.44268967522418 16.05776870129634 6.041775209666865 0 0 0
1386 462 2 0.527 20.93625985228315 12.874249814973101 5.72781493784878 -1 0 0
1574 525 2 0.527 28.204559532341925 5.450601475214423 11.315034913192632 0 1 0
2325 775 2 0.527 25.63017922828371 16.047855828625714 15.790469556422872 0 0 0
2120 707 2 0.527 27.76541812722477 16.73411335576824 6.051101347895007 0 0 0
449 150 2 0.527 21.955307862649775 11.906506221309908 8.749281709498256 0 0 0
1666 556 1 -1.054 23.848029341070514 9.21858230646659 17.29627741307415 0 0 0
1347 449 2 0.527 30.35360132504185 5.717670397394256 4.035994347171816 -1 1 0
150 50 2 0.527 31.12155764089843 12.07942563536853 7.7794196008356895 -1 0 0
2336 779 2 0.527 20.862497066356035 13.226569924656744 16.123168070674982 0 0 0
18 6 2 0.527 22.16166307412462 5.444340403883433 15.75676812642611 0 0 0
1835 612 2 0.527 25.93187236527217 9.30760633043106 5.717141432083124 -1 0 0
2373 791 2 0.527 20.48865798139292 7.383931458949968 10.27358924112973 0 0 0
1346 449 2 0.527 30.1320158075539 4.4485713907237745 4.831084088332407 -1 1 0
1856 619 2 0.527 25.293014871966292 4.0169267621899465 9.537222246430037 -1 0 0
1377 459 2 0.527 19.315021760659555 14.302715279724769 8.541435397750776 0 0 0
35 12 2 0.527 19.093960949169272 12.468173333445826 3.0575888996663365 0 0 0
358 120 1 -1.054 25.027077969686502 9.660119035644824 11.67436606660735 0 0 -1
812 271 2 0.527 28.959664299268844 7.725587594913777 4.546255186950356 0 0 0
1887 629 2 0.527 29.184848148108387 17.052653720076822 16.64313470876862 0 0 0
33 11 2 0.527 19.389251616894434 6.48742235592103 6.378790303900702 0 1 1
360 120 2 0.527 25.147095666440535 10.595276718625605 11.509133891146366 0 0 -1
1410 470 2 0.527 27.22651395063769 11.90611725593467 5.814076340343634 -1 0 0
21 7 2 0.527 27.53838031977906 6.884383593872342 7.932226281376035 0 1 0
1017 339 2 0.527 23.11430427962223 15.989454866901195 11.772089224016836 0 0 0
549 183 2 0.527 29.822049420316127 8.516127766926584 14.41280854206322 -1 0 0
1375 459 1 -1.054 19.864774676364178 14.546735315582534 9.286050611659554 0 0 0
741 247 2 0.527 24.696426048885428 12.467355613527745 16.166820908775616 0 0 1
1704 568 2 0.527 25.08025261255056 11.56276441980848 8.78811729515823 -1 0 0
1408 470 1 -1.054 26.690987230451036 11.169545675986672 6.108863158271655 -1 0 0
19 7 1 -1.054 27.502502531936642 5.935014695711276 8.049005034877492 0 1 0
1855 619 1 -1.054 25.07336636490612 3.9708561176003965 10.46773707736947 -1 0 0
1703 568 2 0.527 26.035152556565173 11.064868706492083 7.724093757793289 -1 0 0
1177 393 1 -1.054 23.12525580450051 6.676772988820833 6.749795360637979 -1 0 0
1152 384 2 0.527 19.817800069080192 4.776204824455647 10.567200405296933 0 1 0
1111 371 1 -1.054 28.231360940473465 12.511174502689546 10.478457415846819 -1 0 0
2113 705 1 -1.054 25.214836751531628 4.0922508924127285 7.647459797467277 0 0 0
2031 677 2 0.527 23.124030496211006 6.634190150552115 11.701719068314647 -1 1 0
864 288 2 0.527 19.735850876117468 5.048017974988259 13.223635773448615 0 0 0
899 300 2 0.527 19.510756060835604 16.41313773049304 8.401325976627628 -1 -1 0
1962 654 2 0.527 21.89023473280568 5.538603632153804 3.625656229810342 0 0 1
1882 628 1 -1.054 31.96778763397017 8.99325197603089 5.571709447045111 0 0 1
1321 441 1 -1.054 26.963797011545793 14.154160702523622 16.414636499574165 0 0 1
1952 651 2 0.527 18.797909778919333 8.192128062359114 4.693393916504264 0 1 0
2098 700 1 -1.054 25.705045434458825 12.374915879170057 12.008411844579294 -1 0 0
1891 631 1 -1.054 27.803069293681283 3.8889482479768036 15.747758178559712 0 0 1
735 245 2 0.527 26.975747093541884 8.298298981289712 14.616785955697871 0 0 0
20 7 2 0.527 28.12631239640084 5.756022135130597 8.752602018577686 0 1 0
3 1 2 0.527 28.49360976600793 8.731195715658767 10.786204822387212 0 1 0
267 89 2 0.527 23.16498661081419 7.235569418213919 13.906899785251145 -1 0 1
2008 670 1 -1.054 17.90303270420496 5.654170485951582 9.00809462636228 1 1 0
1361 454 2 0.527 18.891106180484883 10.130977792288457 6.192525430456041 0 0 1
1409 470 2 0.527 25.80966904778036 11.373113155684289 5.795710820182042 -1 0 0
2058 686 2 0.527 18.042229455718292 11.616766045168093 8.15932837803889 -1 0 0
448 150 1 -1.054 22.84064820188221 11.947280490526154 9.110855671767625 0 0 0
2201 734 2 0.527 21.749701463089067 14.665742700289837 3.631551365109462 0 0 0
148 50 1 -1.054 31.161390645727423 11.858879454882535 6.84882920257346 -1 0 0
1575 525 2 0.527 28.53663027895128 6.743934921254503 10.601664235341122 0 1 0
1214 405 2 0.527 25.75566443879311 16.295358947414748 6.917393763294313 -1 0 0
1219 407 1 -1.054 28.461457833512398 13.152569641026702 5.982144110063128 0 0 1
1912 638 1 -1.054 28.530252348144657 15.793900553110953 3.2653130397130927 0 0 0
1242 414 2 0.527 21.996800835169978 12.05536445711776 12.319995468090191 0 0 0
716 239 2 0.527 24.51054743111422 17.274363299029375 8.309374678798594 0 0 0
784 262 1 -1.054 26.75824527987252 15.45163685579652 10.977108160966765 -1 0 1
1975 659 1 -1.054 31.52083478539908 16.260779203171005 5.409837710769915 0 0 1
966 322 2 0.527 22.64524837011777 17.414502380274502 5.728899038770825 -1 -1 0
34 12 1 -1.054 19.030893392621607 12.052830111585411 3.9176692854471957 0 0 0
988 330 1 -1.054 27.737652439825027 11.327775489543187 16.804867528785948 -1 0 0
411 137 2 0.527 30.402564125742103 4.809662862667958 13.770404775801358 -1 0 1
2323 775 1 -1.054 25.590052902485375 16.700621873064367 15.09153312096828 0 0 0
1150 384 1 -1.054 20.464732452227366 4.20206762778121 10.15723605736131 0 1 0
1016 339 2 0.527 23.251763599540084 16.825665591129344 10.517602616047434 0 0 0
1922 641 2 0.527 25.82053742277762 6.072726302930317 16.360440034875694 -1 0 0
125 42 2 0.527 21.601880976607028 10.432636627128716 16.19597519748551 0 0 0
52 18 1 -1.054 30.887378864848813 13.098980872920984 9.424148151153798 -1 0 0
700 234 1 -1.054 29.721337622318217 13.041106106514057 14.695312107004058 0 0 0
2143 715 1 -1.054 18.42425387905702 15.450026784533378 4.55940970754249 0 0 0
2054 685 2 0.527 24.015603424333584 15.831650006053994 14.1946555966619 0 0 -1
2023 675 1 -1.054 29.008873914119548 7.288454916679727 17.46524238029094 0 0 0
740 247 2 0.527 25.75954436315405 13.225968883836188 15.40120646108496 0 0 1
582 194 2 0.527 30.53088432986611 10.500146539341687 16.429485713273635 0 1 0
1521 507 2 0.527 21.02587488787632 7.179332404435828 14.045800280284448 0 0 0
516 172 2 0.527 18.907688733296773 14.168532085045253 12.099800513198705 0 0 0
1893 631 2 0.527 26.98080294790855 4.355808849053121 15.896570210500537 0 0 1
1584 528 2 0.527 30.856233208433608 3.340010767339273 8.075159464081285 -1 0 1
54 18 2 0.527 30.905101504391773 13.944493761966086 8.975795910752508 -1 0 0
2055 685 2 0.527 23.68772889185061 14.37903009325203 13.92212357087526 0 0 -1
91 31 1 -1.054 30.788207709339858 14.19194858078272 3.8583682308775167 0 0 1
811 271 1 -1.054 28.774199765779272 6.9638084048864695 3.99714568400225 0 0 0
1865 622 2 0.527 18.564673689074006 12.43903441439076 15.135470627621835 0 0 0
2145 715 2 0.527 18.100387554352274 14.733575489265876 4.013484860752127 0 0 0
1883 628 2 0.527 31.022102278645832 8.848194703413338 5.542325522693609 0 0 1
902 301 2 0.527 31.447269165512793 15.430634146139377 7.440541511779267 0 0 1
138 46 2 0.527 28.46115786734297 17.03103028981416 9.539440231221999 0 0 0
813 271 2 0.527 28.861698736863197 7.287268582346854 3.100516869194664 0 0 0
898 300 1 -1.054 19.14618773036971 17.254340619352107 8.126201619632774 -1 -1 0
648 216 2 0.527 23.9830019888864 12.615393456167206 2.9855825263785056 0 0 0
2159 720 2 0.527 19.44939737125022 16.508452014602916 17.22317299103547 0 0 0
1562 521 2 0.527 31.445520523502232 16.125835279913094 17.489055160755413 0 0 0
641 214 2 0.527 26.84080499922169 10.784507109943902 3.1700462728496372 -1 1 0
2073 691 2 0.527 22.44977275470511 3.0203151794012157 16.867279629935105 0 1 0
714 238 2 0.527 23.180990194633488 12.561518271469568 17.497443254160608 0 0 0
393 131 2 0.527 17.986765056348567 4.2272579792219345 19.662223697484926 0 0 0
199 67 1 -1.054 25.00490682822099 9.248065883983973 26.61588359395889 0 0 -1
2189 730 2 0.527 22.3108720070437 16.363579325428844 17.616057278530942 0 0 0
1851 617 2 0.527 27.432818417597268 5.717000052952912 26.182477091107877 -1 0 -1
646 216 1 -1.054 24.895333517611903 12.575547195927022 31.790990292893873 0 0 -1
113 38 2 0.527 27.50978926390465 14.722478530974472 27.188064088693558 0 0 -1
78 26 2 0.527 18.95023150146593 10.05035175688323 21.240564741909544 0 1 0
718 240 1 -1.054 31.85687512956916 6.006956265889584 30.17378352510513 0 1 -1
1908 636 2 0.527 22.727755027907662 6.086064785033541 17.9413046298921 -1 1 -1
2354 785 2 0.527 23.168715989430112 11.387448863182213 24.996812346523463 0 1 0
962 321 2 0.527 17.651132601008715 16.05221065746483 27.36007520106049 0 0 -1
1749 583 2 0.527 28.355379289997806 6.133275183526926 29.909403694048308 -1 0 -1
489 163 2 0.527 25.44550096137894 3.2348015661170684 25.482226061935243 0 1 0
875 292 2 0.527 18.090351036298404 8.57836797395153 31.539282941364938 0 0 -1
1593 531 2 0.527 22.87095890113403 4.622883856746189 28.542144491973538 -1 1 0
1886 629 2 0.527 28.624233518652026 16.34542572654433 17.858626308649328 0 0 0
392 131 2 0.527 18.68009460240934 5.376164884324986 20.363071096658075 0 0 0
1801 601 1 -1.054 29.55739116953125 4.536804109068809 19.70148530828974 0 1 0
1211 404 2 0.527 22.436924309430516 15.571716370534054 29.326610028076878 0 0 -1
200 67 2 0.527 25.09614237606442 9.657224068425762 27.47640171973344 0 0 -1
916 306 1 -1.054 19.89219698015561 16.353688556037696 24.46501860365133 0 0 0
758 253 2 0.527 26.22855487364948 15.07828750081135 30.1279582965468 0 1 -1
128 43 2 0.527 18.76348637311488 9.159925672563684 23.68732080668422 0 0 0
647 216 2 0.527 25.069018051482693 13.441639924077075 31.422285998922312 0 0 -1
1718 573 2 0.527 31.00349514584262 4.200303054311647 27.60852731023767 0 0 0
2116 706 1 -1.054 31.567333629766516 11.071716674303396 23.357834271454593 0 1 0
2260 754 1 -1.054 26.084551128802495 10.348778932432818 22.974266574995227 0 0 0
777 259 2 0.527 20.86158449709145 9.635324695244858 18.955257201394737 0 0 0
96 32 2 0.527 20.48276266715733 6.037964457531988 23.986772797590234 0 0 0
2081 694 2 0.527 28.200482501492488 14.233225889582815 29.72344739450491 0 0 0
930 310 2 0.527 20.789451278414013 11.948851924914871 19.486347112448463 0 0 0
1909 637 1 -1.054 24.99246225600494 6.411178619312388 26.301651489882765 0 0 -1
535 179 1 -1.054 25.26996781623066 7.932644167685804 29.70403423981685 0 0 0
114 38 2 0.527 26.10264195356048 14.168070992450563 27.12136453226826 0 0 -1
2188 730 1 -1.054 22.683165720456138 15.499855873672384 17.793835170225584 0 0 0
1981 661 1 -1.054 30.812522490605872 5.370816689246645 26.10102785659496 0 0 0
1748 583 2 0.527 29.850857892093458 6.189524071022632 30.138008148886733 -1 0 -1
1895 632 2 0.527 23.221976120146714 6.076095301358901 25.928187037452943 -1 1 0
261 87 2 0.527 21.070740792171804 13.490170507509943 28.217271917295598 0 0 0
337 113 1 -1.054 25.55836435747583 15.465577541326791 18.3659044984786 0 1 0
1116 372 2 0.527 22.189984047595757 6.499518336768547 24.305402570657975 -1 1 0
1137 379 2 0.527 30.323934906992193 7.372599770490347 21.232917102165068 0 0 -1
472 158 1 -1.054 18.973009047577328 13.386471559959135 30.47268551679184 0 0 -1
1063 355 1 -1.054 22.746350494040165 14.803982799896074 22.601626595641456 0 0 0
726 242 2 0.527 27.6386325353337 3.01749854424712 26.674872098029553 0 0 -1
109 37 1 -1.054 26.55136516926501 12.787315332719745 22.12527118712194 0 0 0
361 121 1 -1.054 20.361399745150514 6.809167567640637 18.302589132421446 0 1 1
1910 637 2 0.527 24.987477664721624 7.364184887343625 26.390982430716342 0 0 -1
2262 754 2 0.527 26.641854618183693 9.801529601279825 23.527580973315523 0 0 0
1559 520 2 0.527 28.28741212261272 16.32036630059055 28.181921737514948 0 0 0
474 158 2 0.527 19.40687097421494 13.051360472664912 29.68802622787242 0 0 -1
2355 785 2 0.527 23.914884473197475 12.080654067602486 26.116892385352784 0 1 0
652 218 1 -1.054 21.364598739207004 8.24049267076157 30.950982737730357 0 1 0
1779 593 2 0.527 23.000605289736754 5.4215607310474105 22.69885864701424 0 0 0
338 113 2 0.527 25.232384992296858 14.970429849420393 19.117430947683644 0 1 0
1072 358 1 -1.054 30.920542936076984 14.578451732897722 23.30169395596038 0 1 0
1558 520 1 -1.054 28.932230861972585 15.618437744304694 28.269847814343635 0 0 0
1680 560 2 0.527 30.140617336320744 4.679770875300836 17.79592282351931 -1 1 0
2219 740 2 0.527 24.079602657872968 3.5516952024840056 23.164070113104557 0 1 -1
1578 526 2 0.527 23.641851317970577 13.023421104270563 28.7731317839434 0 0 0
917 306 2 0.527 20.55481775929281 17.03805936342373 24.55880609411159 0 0 0
1576 526 1 -1.054 23.962605265677333 12.530634076074122 28.01781486573004 0 0 0
918 306 2 0.527 19.22317934909514 16.742958295465876 23.90189313954425 0 0 0
1364 455 2 0.527 24.136709245478833 11.248497940188656 20.266779210716223 0 1 0
874 292 1 -1.054 18.632042839707957 9.003093791022156 30.874148544266546 0 0 -1
1778 593 2 0.527 22.697461598443446 4.500668139182725 21.536128738728117 0 0 0
2122 708 1 -1.054 27.761484834768964 3.3032722134077352 21.39231530207706 0 0 0
1114 372 1 -1.054 22.112656688947695 6.76164560203677 23.38805009763071 -1 1 0
1923 641 2 0.527 25.013064888944633 5.699212725374336 17.58533012145714 -1 0 0
1849 617 1 -1.054 28.190475920720353 6.088938468464029 25.730987658784436 -1 0 -1
720 240 2 0.527 31.899798092546447 5.07500930671811 30.387928975741914 0 1 -1
1436 479 2 0.527 31.491375333976087 16.604656255039785 29.06395164523179 -1 0 -1
1210 404 1 -1.054 23.141179658936274 14.929970329777742 29.234891793770963 0 0 -1
810 270 2 0.527 23.78634920130905 14.532976266397476 24.088951641894873 0 0 0
260 87 2 0.527 20.003489552324076 13.020932842155279 27.25152305147401 0 0 0
1365 455 2 0.527 24.719379270445337 9.877507243108269 20.53652013450578 0 1 0
1463 488 2 0.527 21.158279788875312 16.115726290073525 20.41697013428582 0 0 1
1721 574 2 0.527 29.22525106539136 15.352658045981752 20.308049185092948 0 0 0
29 10 2 0.527 31.74158114258951 16.31399662309314 26.200354380861015 0 0 0
418 140 1 -1.054 24.423051365862577 10.56698613706698 29.95308263570874 0 0 0
2313 771 2 0.527 19.642227592006073 14.468850252424657 23.662007984731815 0 0 0
1450 484 1 -1.054 24.61070093117771 13.864096603301622 20.489225897677485 -1 0 0
603 201 2 0.527 30.28293281430642 9.498576345706049 28.928252322194894 -1 1 -1
847 283 1 -1.054 29.73792810632026 10.775397761667563 21.19578325535123 0 0 0
602 201 2 0.527 30.55951972025168 8.028437901254492 29.160787823652257 -1 1 -1
685 229 1 -1.054 23.695506451649003 3.1494362554949555 27.870226625194938 -1 1 0
452 151 2 0.527 21.035437419826884 12.195964709643322 23.986523639286418 0 0 -1
929 310 2 0.527 20.628207765470805 12.258300347900466 18.013213610557475 0 0 0
2217 739 2 0.527 29.602682312807687 17.267033603753674 24.04269269442198 -1 0 0
661 221 1 -1.054 30.159651878012042 11.567162751264776 29.258985094680575 0 0 0
2353 785 1 -1.054 24.05117960569202 11.562626464929606 25.32361004675115 0 1 0
1850 617 2 0.527 27.958651611212538 7.006761661854362 25.589270170764472 -1 0 -1
1373 458 2 0.527 22.5864412874839 9.993868565042433 21.712391761840408 0 0 0
2080 694 1 -1.054 28.033689989101745 13.800736156912789 30.56091902481836 0 0 0
2118 706 2 0.527 30.79497031568011 11.032994186225057 22.793758666341752 0 1 0
963 321 2 0.527 18.740625565926713 16.498838770469035 26.4085455947681 0 0 -1
1067 356 2 0.527 17.646240642743102 9.996066098118845 26.09196345682446 0 0 0
1358 453 2 0.527 27.153696194321135 6.341852431533724 20.604761517386358 0 0 0
1802 601 2 0.527 29.077997055328304 3.831583069377448 20.1363075144706 0 1 0
304 102 1 -1.054 27.793372780525132 8.906666003460796 24.720737664298234 0 1 0
420 140 2 0.527 23.47319083630007 10.453657282281696 29.91920990092791 0 0 0
363 121 2 0.527 19.84550723306056 6.23088719865253 18.864436549084097 0 1 1
2374 792 1 -1.054 26.76756267228732 17.290507999981536 27.36021598665164 0 1 -1
2314 772 1 -1.054 32.0185752493556 13.339468398950958 18.45460151378997 0 1 0
77 26 2 0.527 20.268436183571936 9.417780939899306 21.63308330700677 0 1 0
129 43 2 0.527 19.16092892872586 7.978690485735576 24.546740962623282 0 0 0
28 10 1 -1.054 31.18327286679211 15.965882071263861 26.89557659517144 0 0 0
1591 531 1 -1.054 22.710798558717684 5.498502356563533 28.894091551285157 -1 1 0
2352 784 2 0.527 25.119718881467563 6.1350287672061885 19.779336235257922 -1 0 0
2242 748 1 -1.054 19.365683572354342 15.95252112047624 29.883824871709812 0 0 -1
1212 404 2 0.527 23.797802616605836 15.200900319671094 29.876506209599093 0 0 -1
789 263 2 0.527 27.18723237191776 11.8620779248758 20.487499612530186 0 0 0
1036 346 1 -1.054 17.991139749291033 11.38776984938826 20.192221668952804 0 0 0
76 26 1 -1.054 19.32129455109048 9.294028180568867 21.69500140663623 0 1 0
1363 455 1 -1.054 23.895207552049563 10.32571099088349 20.346572376016773 0 1 0
473 158 2 0.527 19.003354471023847 14.338261963721164 30.37573184041731 0 0 -1
1437 479 2 0.527 30.832599630881354 16.77699591492592 30.416058811418125 -1 0 -1
2312 771 2 0.527 19.215268549824664 13.211195062405467 22.935447948041492 0 0 0
809 270 2 0.527 24.193851559071398 13.393429111547206 24.998486811757353 0 0 0
654 218 2 0.527 21.581885740020894 8.200449787555499 30.019634946851944 0 1 0
1894 632 1 -1.054 22.314688064658696 6.277135324922899 26.157614856157906 -1 1 0
1086 362 2 0.527 18.193120881878507 11.959154697641546 25.998241259970506 0 0 0
451 151 1 -1.054 21.491756589953987 11.489192827133861 24.443111161441045 0 0 -1
339 113 2 0.527 25.774964987395116 16.327291030525643 18.721937960333925 0 1 0
1136 379 2 0.527 30.461756247712664 6.159867223025026 22.1285539080855 0 0 -1
1978 660 1 -1.054 23.693014643923483 3.471697234348944 30.82067725109104 0 0 -1
1803 601 2 0.527 29.112725954563736 5.337078181670533 19.980877673154303 0 1 0
1074 358 2 0.527 31.087237762330425 15.49487748916009 23.522153615501715 0 1 0
1226 409 2 0.527 18.03659085628402 3.2859500693406414 27.294323936531704 -1 0 -1
989 330 2 0.527 27.615661013562026 11.343120570156476 17.754134826904966 -1 0 0
1549 517 1 -1.054 31.177083293774515 14.840432743081937 20.495073969511047 0 0 0
111 37 2 0.527 26.44066328376693 11.899284273004996 22.464935375188922 0 0 0
1038 346 2 0.527 18.574327131085262 11.511853372741468 19.44340825457118 0 0 0
2086 696 1 -1.054 24.34536589393081 15.897634787543518 27.13071520601642 -1 0 -1
1983 661 2 0.527 29.920237354337296 5.644026822524042 25.887933349929988 0 0 0
1982 661 2 0.527 31.26264858275028 5.341613426884165 25.256777003219135 0 0 0
536 179 2 0.527 24.896019080666804 8.786130987359567 29.9230054165185 0 0 0
1907 636 2 0.527 23.334409512748024 7.472434696800823 17.898538581233762 -1 1 -1
2136 712 2 0.527 26.111932931040542 9.221335405685284 21.562651809600787 0 0 0
362 121 2 0.527 20.61345535899536 7.535519870595566 18.872769942444428 0 1 1
2088 696 2 0.527 24.16436390693101 15.2111269884296 26.4887096086875 -1 0 -1
201 67 2 0.527 24.764489122759052 9.967664104542987 26.032271135165004 0 0 -1
2165 722 2 0.527 30.708844396117748 9.113397892048571 19.075047949753333 -1 0 0
94 32 1 -1.054 19.58414676773996 5.715972700397319 24.057741675734647 0 0 0
713 238 2 0.527 23.850070208789518 12.909395988585219 18.810147753862744 0 0 0
712 238 1 -1.054 23.986836545911835 12.425382728475665 17.9957449459049 0 0 0
2124 708 2 0.527 26.877649930852307 3.4948358603901757 21.07868334245977 0 0 0
110 37 2 0.527 27.053102118996726 13.242182435372223 22.801719065227886 0 0 0
2158 720 1 -1.054 19.242677878057528 16.29938588867563 18.13409793097147 0 0 0
910 304 1 -1.054 26.342944103261758 3.7687296430191584 29.752850119226437 0 1 0
848 283 2 0.527 28.891608289636004 11.02048423567079 20.821749506704478 0 0 0
829 277 1 -1.054 26.93331057722522 16.935300531839182 22.484304517751966 -1 0 0
1980 660 2 0.527 24.484247061740604 3.7050863829519844 30.335181022360793 0 0 -1
970 324 1 -1.054 26.58086005332595 5.960541533877983 28.260123885441892 0 1 -1
234 78 2 0.527 17.63779401862264 5.043190395696794 30.97823878657306 0 1 -1
316 106 1 -1.054 28.2401724698127 14.579532751693055 23.805695744546334 0 1 0
317 106 2 0.527 28.323586949388606 14.449615132479426 24.750359304839627 0 1 0
2243 748 2 0.527 19.190002076984847 15.942978319063762 28.942936596962447 0 0 -1
1906 636 1 -1.054 23.483285539685774 6.591293655041671 18.241543267811085 -1 1 -1
1115 372 2 0.527 22.3346571063231 7.69273756418196 23.384980038704484 -1 1 0
2315 772 2 0.527 31.539638928416807 12.824850609239622 17.804975213601324 0 1 0
928 310 1 -1.054 20.32473809027907 11.664030419652276 18.699489955390476 0 0 0
1451 484 2 0.527 25.3524583686739 13.549549935078177 21.006025826442468 -1 0 0
972 324 2 0.527 26.168569573506524 6.689023281495276 28.724404727728356 0 1 -1
1138 380 1 -1.054 28.608298786682916 5.356745063577657 23.037902574569316 0 0 0
1065 355 2 0.527 22.055052636044167 14.968653092741262 23.242888434561365 0 0 0
259 87 1 -1.054 20.258275918938537 12.985975293767302 28.173525051040478 0 0 0
2167 723 1 -1.054 21.54772049456087 12.514393984617637 21.06226083701047 0 1 0
642 214 2 0.527 27.134962299783957 9.84114752453885 31.115395666612358 -1 1 -1
971 324 2 0.527 26.463108310051048 5.208609679425221 28.840605429333614 0 1 -1
2166 722 2 0.527 29.62385422367813 8.072622657395371 18.897669003664138 -1 0 0
2350 784 1 -1.054 25.5121782611726 5.405795125618917 20.259356762228784 -1 0 0
2173 725 1 -1.054 22.73100350012907 17.262032964916926 25.364165615145836 0 0 0
2135 712 2 0.527 26.83650509844167 8.095930983855434 20.855304595492036 0 0 0
1793 598 2 0.527 21.02030374509937 10.51236638893174 30.277350754670096 0 0 -1
1551 517 2 0.527 31.31728497663289 14.489997271650623 21.37471266767956 0 0 0
1717 573 1 -1.054 30.71464562570896 3.440616911102546 28.114164261977912 0 0 0
608 203 2 0.527 18.85388276277321 5.857451309178848 27.434065695220973 0 1 -1
1720 574 1 -1.054 28.850727889569114 16.220653273380798 20.15790765711951 0 0 0
662 221 2 0.527 31.037639464930763 11.8619716542253 29.017218068227677 0 0 0
1777 593 1 -1.054 23.39092905503606 4.740873795431314 22.150644768585316 0 0 0
759 253 2 0.527 25.513669462327968 15.869330766186852 31.202699893399704 0 1 -1
539 180 2 0.527 18.02881258837048 3.2350138622675573 22.178172230993376 0 1 0
830 277 2 0.527 27.095218535494226 17.25259057442046 21.595857212090415 -1 0 0
961 321 1 -1.054 18.43673229840602 16.5968592231152 27.31091284455829 0 0 -1
1084 362 1 -1.054 19.01667616293114 12.444121370162103 25.945422490334934 0 0 0
849 283 2 0.527 29.884268962123066 9.879611275938663 20.891847839077712 0 0 0
305 102 2 0.527 28.747739240248002 8.905581957576125 24.6471899226947 0 1 0
419 140 2 0.527 24.552444987799362 11.349118527694314 30.489507859128636 0 0 0
1719 573 2 0.527 29.82083227472978 3.2775845864697355 27.812926894763635 0 0 0
640 214 1 -1.054 27.515998348917414 10.200796740411771 31.91645108173286 -1 1 -1
1359 453 2 0.527 28.17905871551821 6.442692189517511 21.713969826563044 0 0 0
174 58 2 0.527 21.92410864660171 12.393903517613273 31.94216837011958 0 1 0
2311 771 1 -1.054 19.990122226071414 13.682269299421609 23.24190620542113 0 0 0
653 218 2 0.527 20.417187088680805 8.375565706006505 30.97078767187056 0 1 0
306 102 2 0.527 27.621643027143584 9.213051700538312 25.611165920403685 0 1 0
1307 436 2 0.527 22.70789658150968 8.297402474526605 27.487882093512297 0 0 0
775 259 1 -1.054 21.266259468824515 8.92828544151742 19.457810161544387 0 0 0
831 277 2 0.527 27.075240465683883 15.990175636122608 22.43119511049371 -1 0 0
2168 723 2 0.527 21.262843579832065 13.418753897493511 20.931096306972343 0 1 0
1630 544 1 -1.054 18.48000718354139 6.751966302488149 21.508912069544138 0 0 0
601 201 1 -1.054 30.914804816800732 8.806914229192774 28.731867185396922 -1 1 -1
2087 696 2 0.527 23.827061632465707 15.652196422001616 27.897100557527025 -1 0 -1
1993 665 1 -1.054 19.729314604145138 5.195975409500136 29.428679169821358 0 0 -1
1560 520 2 0.527 29.719870988529074 15.961901819507867 27.848088029512482 0 0 0
1550 517 2 0.527 31.107650004158494 14.066189548372213 19.936547100392765 0 0 0
1435 479 1 -1.054 31.636314737477882 16.97410341128409 29.935001125874194 -1 0 -1
1397 466 2 0.527 27.625245619533118 17.129550406449177 24.331254459563226 0 1 0
1064 355 2 0.527 22.410537900986988 15.175639883583532 21.785950987353722 0 0 0
1306 436 1 -1.054 22.612216570397983 8.376898731262514 28.436961378976456 0 0 0
788 263 2 0.527 26.992659388505615 10.540581697293863 19.77499053616554 0 0 0
1308 436 2 0.527 23.121052106772638 7.64771897563117 28.79137505999182 0 0 0
1073 358 2 0.527 31.402363636785267 14.081160109870988 23.962583986955075 0 1 0
808 270 1 -1.054 23.97929836218554 14.326257255591988 25.003426183976487 0 0 0
787 263 1 -1.054 27.524710114524915 11.336187898606267 19.762396684587394 0 0 0
1313 438 2 0.527 30.554399206951707 9.097528725654024 26.35801293681999 0 1 -1
1374 458 2 0.527 21.957659208383056 10.526814173051918 22.98222724388952 0 0 0
2082 694 2 0.527 27.927567571511972 12.87625307128415 30.336653910809375 0 0 0
1747 583 1 -1.054 29.062953777647245 6.733005469153263 30.14580968753473 -1 0 -1
1085 362 2 0.527 18.775163929689796 13.28581635744507 25.55883851341393 0 0 0
112 38 1 -1.054 26.99967169363653 13.992455736835142 26.837247061202383 0 0 -1
2213 738 2 0.527 17.55229008657193 12.152336170166407 21.94128820789434 0 1 -1
453 151 2 0.527 21.001601620798276 11.373573900247417 25.257117426197695 0 0 -1
1497 499 2 0.527 28.62457781762174 11.464893790495633 27.828356926369203 0 0 0
1372 458 1 -1.054 22.202098139178716 9.712424993157242 22.54263006830803 0 0 0
2169 723 2 0.527 21.49175635740326 12.379969635986003 22.008317862690625 0 1 0
1896 632 2 0.527 22.22031540165115 5.966324972896399 27.05801284666761 -1 1 0
1312 438 1 -1.054 30.279666473229938 9.577965343349005 25.577033825636207 0 1 -1
2351 784 2 0.527 24.91415414899884 5.250125144312501 20.99035593865566 -1 0 0
2164 722 1 -1.054 30.120696594426413 8.541443370443275 19.56817672049835 -1 0 0
1139 380 2 0.527 28.561420683444283 4.5050994493444465 22.60347425430662 0 0 0
876 292 2 0.527 18.39697452423105 8.563812338145226 30.05683558192913 0 0 -1
1722 574 2 0.527 29.568601784312612 16.82673397648635 20.34107170897026 0 0 0
1979 660 2 0.527 23.273279027182127 4.310214661810651 31.012865513166652 0 0 -1
2134 712 1 -1.054 26.204582912435484 8.799705080684864 20.708327671778072 0 0 0
1496 499 2 0.527 27.626690697178304 12.26335724885052 27.016841340023092 0 0 0
351 117 2 0.527 25.173226278196985 3.70215936743019 18.645516338077762 0 1 0
2190 730 2 0.527 23.626550317209563 15.651996455319587 17.849553404150942 0 0 0
1911 637 2 0.527 25.445943297648924 6.099107446075835 27.084717502132 0 0 -1
2244 748 2 0.527 18.98632480125667 16.776106533517776 30.19045131175855 0 0 -1
1355 452 2 0.527 17.52331930745715 16.27774539995427 20.16361534269891 0 0 0
318 106 2 0.527 29.1054239766652 14.36559756880657 23.456700924520867 0 1 0
1792 598 1 -1.054 21.562743208193794 11.273379790783851 30.070363294133877 0 0 -1
719 240 2 0.527 31.858148074882934 6.033641673094711 29.21695958353729 0 1 -1
1994 665 2 0.527 19.254621424990866 5.440316709788835 30.22315354929973 0 0 -1
1794 598 2 0.527 21.248243576799013 11.566824094731446 29.21525731878925 0 0 -1
70 24 1 -1.054 21.53338577567036 3.5020074174641125 20.27824696868457 0 0 0
1914 638 2 0.527 28.23824884663808 15.09388485115697 31.773683133276982 0 0 -1
2160 720 2 0.527 19.974571369245403 15.75693109719565 18.42786740681276 0 0 0
127 43 1 -1.054 18.897251809565304 8.897422100350733 24.59804825149876 0 0 0
1464 488 2 0.527 21.795352184099386 15.151540249146196 19.439031439290503 0 0 1
2261 754 2 0.527 25.21185858195608 10.269175958195751 23.35935993612989 0 0 0
1135 379 1 -1.054 30.953167797840223 6.904458075939868 21.78167503074448 0 0 -1
30 10 2 0.527 31.516739931686338 15.082275262789457 27.051347318968794 0 0 0
2025 675 2 0.527 28.30117382582894 6.731548674750632 17.78965235590449 0 0 0
537 179 2 0.527 25.38218694482547 7.496026420684647 30.54842612210158 0 0 0
1452 484 2 0.527 23.909482409891986 13.990846267698124 21.12832918257061 -1 0 0
95 32 2 0.527 19.612810426175763 4.838502998381115 23.676361158600805 0 0 0
1592 531 2 0.527 21.786964201267764 5.49121972415252 29.144496869347478 -1 1 0
607 203 1 -1.054 18.139173478541114 5.5845346497099655 26.858797992781717 0 1 -1
1632 544 2 0.527 18.66388729500428 6.353382838404384 22.359526712165234 0 0 0
1357 453 1 -1.054 27.97004311991015 6.781054369111741 20.843309547017633 0 0 0
1051 351 1 -1.054 31.433881430876184 3.3682064659693527 21.666164221805182 -1 0 -1
1668 556 2 0.527 23.770602655631635 9.981696876206247 17.868891623589676 0 0 0
1140 380 2 0.527 28.41663303014542 5.1683910548681204 23.956604260547287 0 0 0
391 131 1 -1.054 18.837156729847653 4.657706649253233 19.750392497359663 0 0 0
1577 526 2 0.527 24.235590839815337 11.68755836587132 28.379654703939373 0 0 0
757 253 1 -1.054 25.418968686046384 15.102218648702626 30.638079154589 0 1 -1
1462 488 1 -1.054 21.29393790940155 15.182344950790094 20.253807839815877 0 0 1
1495 499 1 -1.054 27.916257873836216 11.367957534663232 27.191872802200457 0 0 0
912 304 2 0.527 26.855926433190284 3.640502735792425 30.55074283449659 0 1 0
1995 665 2 0.527 19.841340919055426 4.2478918310597935 29.49805816650175 0 0 -1
1314 438 2 0.527 29.473830828027097 10.022645697771386 25.839929366783693 0 1 -1
609 203 2 0.527 18.49183864243782 5.683370121084755 25.97444250894484 0 1 -1
776 259 2 0.527 22.207359795742377 9.078559061271324 19.36851380305879 0 0 0
663 221 2 0.527 30.235973949982764 11.3154195506554 30.179325304158205 0 0 0
1631 544 2 0.527 18.98367891740117 7.565928504086817 21.511383700189462 0 0 0
488 163 2 0.527 25.152942430049023 3.094210723572395 26.960915951776627 0 1 0
2117 706 2 0.527 31.32060206161998 10.57363398390784 24.137105073856112 0 1 0
71 24 2 0.527 21.042921360232377 4.090782904028253 19.70464966214938 0 0 0
1961 654 2 0.527 22.08613321575173 6.766925198143337 31.85494770250098 0 0 0
2215 739 1 -1.054 30.50709252384705 17.279703912638567 23.72947156999328 -1 0 0
2212 738 1 -1.054 17.667759234767043 12.330382536203231 22.874664951451088 0 1 -1
2175 725 2 0.527 23.288822646348017 16.8626088275728 26.031641411890952 0 0 0
1052 351 2 0.527 31.343339327900125 3.7797102035898154 20.80669195164925 -1 0 -1
2375 792 2 0.527 25.9359873225225 16.927591342636006 27.055257277130288 0 1 -1
2024 675 2 0.527 29.79146569905928 6.740384788957995 17.523509321213467 0 0 0
1186 396 1 -1.054 18.392985199488507 22.92338428727009 4.51862726041232 0 0 1
462 154 2 0.527 29.037628978925916 24.30226629976662 12.820594888532069 0 -1 0
2139 713 2 0.527 20.943645660688844 20.197110274800465 4.7431088573480595 0 0 0
131 44 2 0.527 22.767534137617297 19.64394903147587 14.826852298103237 0 -1 0
2264 755 2 0.527 21.888580655154428 25.480428817044135 4.950844408566219 0 -1 0
880 294 1 -1.054 19.98994707826605 26.633917637420446 9.387308194059429 0 -1 0
2263 755 1 -1.054 22.332742257407695 25.928944742018103 4.231275271162305 0 -1 0
1711 571 1 -1.054 21.559563071949896 28.62723719224892 4.949723069977357 0 0 0
2128 710 1 -1.054 26.112770636002516 20.223511827142033 10.57441448178449 0 0 1
1986 662 2 0.527 31.512878057481437 20.215379480193725 3.9262868871060643 0 0 0
273 91 2 0.527 31.36076992274124 19.085592127743865 8.618657699675001 -1 0 0
1453 485 1 -1.054 21.342782409721593 17.956498010324328 17.02790234784203 0 0 1
1169 390 2 0.527 25.158475596731122 23.82354516371526 10.139394875583372 0 0 0
1251 417 2 0.527 31.163724058841005 23.892731896215473 7.752076535542908 0 0 1
655 219 1 -1.054 25.135348294541885 30.03881568524212 10.797436138596872 0 -1 0
2072 691 2 0.527 23.45617412294485 31.776822981895634 15.787325489850334 0 0 0
1988 663 2 0.527 19.28060762192603 23.20082746112797 8.972269407845989 -1 -1 0
1712 571 2 0.527 21.076959991765555 29.38428666252471 4.617764922911365 0 0 0
1813 605 1 -1.054 20.747981996816804 19.23759291066564 14.451750297254831 0 0 0
1403 468 2 0.527 25.237294585173068 22.413373951061857 7.493864094162593 0 0 0
1898 633 2 0.527 24.43015380253184 30.446030696966574 9.169274018797612 0 0 1
1776 592 2 0.527 26.479878571294122 19.60351041012079 16.58686484571956 -1 0 0
208 70 1 -1.054 18.32214671487722 19.88822388319435 15.672503597861878 0 0 0
1336 446 1 -1.054 20.78981478813585 30.73565341037044 11.20611524831283 0 0 1
656 219 2 0.527 25.30540166749961 29.34326983463926 10.162200890233585 0 -1 0
678 226 2 0.527 25.265572023833762 29.607079990416587 13.736044902399307 -1 0 0
755 252 2 0.527 26.39872684306461 22.947832837502737 15.807935778112903 0 -1 0
1673 558 2 0.527 29.695975159301618 20.265635162589625 7.160041478449874 -1 0 1
977 326 2 0.527 20.172356059279167 22.989528166725698 11.063438152389669 0 -1 0
558 186 2 0.527 21.853829802969997 27.3991550440738 15.698593914460991 -1 0 0
183 61 2 0.527 31.872826673061986 31.834492759276777 12.370176408210952 0 -1 1
1970 657 2 0.527 20.502553132086774 31.254520874006516 14.864809026946382 0 0 0
1615 539 1 -1.054 28.87451771954548 21.728621666147255 16.58677567773173 -1 0 1
210 70 2 0.527 17.645925346341556 19.34543154379528 15.267131030786931 0 0 0
2107 703 1 -1.054 25.52466290780422 17.637420468040204 11.889181125891486 0 0 0
2063 688 2 0.527 17.96890987288618 18.507880233996005 3.5455365765300386 -1 0 0
1769 590 2 0.527 29.516504864575786 26.719006533779833 10.172928231964319 -1 -1 0
1348 450 1 -1.054 24.796437634951687 26.648057567801068 14.175520638592443 0 0 0
1250 417 2 0.527 30.269898155308795 23.821148615140373 6.532309632189324 0 0 1
108 36 2 0.527 18.92746920754186 27.114050130164507 13.24210455834935 0 -1 0
1829 610 2 0.527 24.818306836185748 28.45466961599761 16.318377037475322 0 -1 0
1847 616 2 0.527 27.51925411741474 30.717052556204614 7.559882925281026 0 0 0
2186 729 2 0.527 21.202163941307127 23.87104775904404 4.117280163729655 0 0 0
2222 741 2 0.527 20.637751647256373 23.579944290876718 13.75396256914902 0 -1 0
1273 425 1 -1.054 24.967926988063688 20.39544234460162 7.8812049414298535 0 0 1
669 223 2 0.527 28.58452804346279 21.887829372768742 10.938696922479904 -1 1 0
372 124 2 0.527 20.406750227060094 31.74058400065457 4.484657219428118 0 -1 0
1299 433 2 0.527 29.076819555269026 19.11396110040902 10.641197403832578 0 0 0
38 13 2 0.527 22.192350604981584 25.054532415651558 11.160185925299636 0 -1 1
2042 681 2 0.527 27.50561966277052 29.315972731155895 4.09022027082727 0 0 0
839 280 2 0.527 18.088195094289212 24.154358398914752 10.71292498225478 0 0 1
1349 450 2 0.527 24.438784952417024 26.734912662334665 13.29191067378285 0 0 0
868 290 1 -1.054 24.454997312936328 18.806314114838067 5.62556042318331 0 0 0
634 212 1 -1.054 28.354991867334412 20.696509692416384 5.626873005272762 -1 -1 0
557 186 2 0.527 21.69378820819057 28.142868911948625 14.389717902210558 -1 0 0
1455 485 2 0.527 21.21095874455417 18.187693833945097 16.10844772986242 0 0 1
1442 481 2 0.527 23.899562482542542 26.917143467874823 10.959038434558247 0 -1 0
717 239 2 0.527 23.382064618167057 18.275167820065086 8.438977554518171 0 0 0
1830 610 2 0.527 23.73044661171921 28.929786221592877 15.378853564191074 0 -1 0
395 132 2 0.527 24.280017750738672 24.397214370503562 14.117193674534677 0 -1 0
2286 762 2 0.527 27.34528783549139 24.04814347376694 9.949655376698601 0 0 0
2137 713 1 -1.054 20.49204894520507 20.08091180013738 5.579041926603276 0 0 0
1331 444 2 0.527 23.75174277233898 24.415113911609048 17.193715114942986 0 0 0
553 185 1 -1.054 28.619142689350852 25.29229921776256 9.260681125556399 0 0 0
765 255 2 0.527 30.507495895223578 27.238635060929575 6.551505313579359 -1 0 1
1569 523 2 0.527 29.95239868820564 31.23492771756714 13.961096744227177 0 -1 0
616 206 1 -1.054 30.69170709890855 23.616375016700964 12.921419859893817 -1 0 0
2127 709 2 0.527 29.302797448804604 26.911232318032006 17.19628338987458 -1 0 0
37 13 1 -1.054 21.710195922518302 24.433346978144662 10.614400900937087 0 -1 1
2129 710 2 0.527 25.241159908535472 20.090701324093153 10.947083183722203 0 0 1
1504 502 1 -1.054 29.863686592899654 29.630590741927058 6.52096323726175 0 0 0
2020 674 1 -1.054 26.876769370264334 26.844070283380894 7.602561158283139 0 0 1
2022 674 2 0.527 26.557069516620388 26.548577597262046 6.750093052951339 0 0 1
2138 713 2 0.527 19.8462205306011 19.395038024513866 5.409605824127967 0 0 0
2271 757 2 0.527 27.625250193990595 31.048802074037205 13.157413421987327 0 -1 0
676 226 1 -1.054 26.031956906874207 29.688501717811953 13.168373786400236 -1 0 0
2269 757 1 -1.054 28.215041099559784 31.76168934916158 13.402697341798595 0 -1 0
1815 605 2 0.527 20.378086204526156 18.84853290806646 13.659263573216107 0 0 0
512 171 2 0.527 28.830698995628673 25.00584519711211 4.601156777175683 0 0 1
1745 582 2 0.527 22.8056568078704 22.062549875852604 4.515669069770457 0 0 1
1586 529 2 0.527 18.000032737890706 31.16267534490114 6.9552325310781935 0 0 0
1401 467 2 0.527 18.208245507593197 27.21382110058324 9.283247963717596 0 0 1
869 290 2 0.527 24.737235086076275 19.407850176640814 6.314561135549808 0 0 0
106 36 1 -1.054 19.740545177641508 27.267565781136085 13.723317804898333 0 -1 0
1828 610 1 -1.054 24.67704204311311 28.95983773296185 15.517705295312314 0 -1 0
881 294 2 0.527 20.260737262587817 27.23172373291478 10.084105388288373 0 -1 0
1298 433 2 0.527 30.023186391034358 17.93568128990198 10.73022836079454 0 0 0
1985 662 2 0.527 31.51045501516986 21.683297265397123 4.296545684063527 0 0 0
768 256 2 0.527 24.250915023266046 29.35077224371507 6.953821859556786 0 -1 0
1297 433 1 -1.054 29.096607931699758 18.168485958991745 10.789220874429708 0 0 0
274 92 1 -1.054 31.465022081641237 19.21104038448223 14.29745709666793 -1 0 0
1209 403 2 0.527 29.835836192393096 26.18950605716021 14.92044750959263 -1 -1 0
511 171 1 -1.054 29.457294010810386 24.282344692973886 4.588846200488313 0 0 1
978 326 2 0.527 19.076615397494002 21.965018626982072 11.267429843440926 0 -1 0
618 206 2 0.527 30.691064713668133 22.862449126615815 13.511183499468055 -1 0 0
2280 760 2 0.527 18.112004107629506 17.757032813638745 11.12835672267406 0 1 0
2209 737 1 -1.054 28.290129979124963 18.990494878963517 16.000507900645005 0 0 0
2298 766 2 0.527 29.008255664480714 28.43524845402208 9.202580883615852 -1 0 1
2187 729 2 0.527 20.207905249353203 22.768127448544874 4.412062292921991 0 0 0
399 133 2 0.527 17.938871710804342 27.2467022596444 16.630663315227785 -1 0 0
1672 558 1 -1.054 30.368647517793455 20.418292123549065 7.8236931405423515 -1 0 1
1765 589 1 -1.054 24.89937321899209 26.532751032123926 4.9185632537568225 0 0 0
1187 396 2 0.527 18.177258213230708 23.7643741301042 4.921645576416962 0 0 1
1948 650 1 -1.054 23.202533960509797 22.680989191933932 16.48576723072061 0 0 1
1987 663 1 -1.054 19.19547719793949 23.526427600703116 8.076187296845323 -1 -1 0
2258 753 2 0.527 31.45360092075542 28.220580497601993 16.55663518600999 0 0 0
1207 403 1 -1.054 30.727101703003726 25.874334203800117 14.770320013847716 -1 -1 0
1889 630 2 0.527 22.021531373786786 20.042372617542995 6.9117636317026445 0 -1 0
1229 410 2 0.527 31.534356927004758 20.873124306078125 14.823008658440967 0 0 0
2035 679 1 -1.054 19.713853831412536 19.31334451168982 9.625267235341427 0 0 2
2185 729 1 -1.054 21.13137999675584 22.921190962338684 4.2120829243487545 0 0 0
2032 678 1 -1.054 22.21696860967846 27.71276514880485 7.972200766217206 0 -1 0
636 212 2 0.527 27.65591683150444 21.347987272134603 5.682522219804637 -1 -1 0
556 186 1 -1.054 21.977933352644257 28.258834884252124 15.296381686097156 -1 0 0
1674 558 2 0.527 31.160826111425976 20.61165501009051 7.322405159262565 -1 0 1
281 94 2 0.527 20.849516356983877 28.932544054864557 11.180512959828333 0 0 0
1170 390 2 0.527 24.253609712474727 23.389585073484916 9.005915018493713 0 0 0
1568 523 2 0.527 30.997688583058398 30.278195708954655 13.428261948927055 0 -1 0
870 290 2 0.527 24.296051229252683 19.367951950715067 4.8669268728801525 0 0 0
1443 481 2 0.527 22.700145863400806 27.33769544531144 11.781483471281598 0 -1 0
1493 498 2 0.527 20.09212717284248 24.75357189943768 7.119203833435827 0 0 1
2049 683 2 0.527 26.099725660151364 29.917295440722057 16.60663709482234 -1 -1 0
49 17 1 -1.054 31.82023554675481 18.26421972371986 3.4638638417284224 -1 1 0
1724 575 2 0.527 18.87499234488829 29.71431380765086 16.326291650842 1 0 0
545 182 2 0.527 25.532500151254418 22.80913322867446 3.407863423786054 0 0 1
2125 709 1 -1.054 28.55986408807386 26.308052122697617 17.217484674845196 -1 0 0
1079 360 2 0.527 31.65825844697732 28.19261639513688 9.819777764745684 -1 -1 1
394 132 1 -1.054 23.834770282333302 23.896528303507218 13.433604644495222 0 -1 0
766 256 1 -1.054 24.696467897560645 28.768396655380442 6.338560044659031 0 -1 0
2210 737 2 0.527 28.224667857832934 18.87472444416223 15.052595583005377 0 0 0
1814 605 2 0.527 19.990584363443283 19.577384999640472 14.928317169593804 0 0 0
754 252 1 -1.054 26.06502087009593 22.194821991927718 16.295624987671538 0 -1 0
1274 425 2 0.527 24.015042903661467 20.34402988254189 7.8064087725891405 0 0 1
976 326 1 -1.054 19.376875206164925 22.641562199966764 10.66050429680344 0 -1 0
657 219 2 0.527 25.57801334543094 29.748850850611348 11.595053848919616 0 -1 0
1770 590 2 0.527 30.47164050726684 27.08851257748013 11.287854854337795 -1 -1 0
396 132 2 0.527 24.11050071156616 24.309671539111434 12.615368023535463 0 -1 0
668 223 2 0.527 29.29460321044168 21.232314628081546 9.773375578076145 -1 1 0
667 223 1 -1.054 29.29594216320514 21.28264621789058 10.729247305626865 -1 1 0
1168 390 1 -1.054 24.24115693320625 23.808696160019885 9.866389680454368 0 0 0
756 252 2 0.527 25.114830622685204 22.2427016957581 16.190402248569505 0 -1 0
1567 523 1 -1.054 30.89052966231663 31.046828700858512 13.988570844797072 0 -1 0
282 94 2 0.527 20.759876460179733 27.78912378991067 12.168660201164514 0 0 0
1725 575 2 0.527 20.29585181333872 29.38589304581074 15.91987044834998 1 0 0
1767 589 2 0.527 23.99807853930676 26.23434001633229 5.0404015878377315 0 0 0
2223 741 2 0.527 19.309889629337512 24.21728446354922 14.10390548393623 0 -1 0
2324 775 2 0.527 25.777723611317988 17.531526910631648 15.528113345565975 0 0 0
57 19 2 0.527 30.874161836570096 28.758545067156497 3.3891463083098796 0 0 0
41 14 2 0.527 28.128308481216997 26.977446002647042 13.49316522598475 -1 0 0
1620 540 2 0.527 20.392663030024124 25.362004165515152 16.777147068954875 0 0 -1
40 14 1 -1.054 28.413123534313257 27.891267926678815 13.499136458685562 -1 0 0
2265 755 2 0.527 22.061987909949124 26.84324278033158 4.314803478977817 0 -1 0
2369 790 2 0.527 28.47293949614709 18.11070783059763 12.591953060498184 0 0 0
1723 575 1 -1.054 19.773665892806655 30.038295009974597 16.386688741126516 1 0 0
1494 498 2 0.527 21.219271011382432 24.085429721282033 6.360907815418958 0 0 1
1899 633 2 0.527 23.106655518163087 29.920436232202235 8.655481362902378 0 0 1
2043 681 2 0.527 28.56563966001862 29.29379790144018 5.170843203707774 0 0 0
2285 762 2 0.527 27.222767761029772 23.96283861639462 11.456171870600132 0 0 0
1744 582 1 -1.054 23.682740921215427 21.89017911619191 4.858068773013827 0 0 1
767 256 2 0.527 25.59765273354199 29.090043218800474 6.313354830988919 0 -1 0
2130 710 2 0.527 26.19917099955903 21.17379335974654 10.498745753910903 0 0 1
2076 692 2 0.527 31.820496883988397 31.07813426552317 16.456247126705264 -1 0 0
764 255 2 0.527 30.275036431725212 25.98823088566727 7.372682566667147 -1 0 1
763 255 1 -1.054 30.66525357841909 26.861159360027543 7.416866744279292 -1 0 1
369 123 2 0.527 27.433495900204726 19.35043771182341 5.071185526732685 -1 0 1
882 294 2 0.527 20.421022279681083 25.806227710182988 9.60021508008984 0 -1 0
2033 678 2 0.527 22.1486929221427 28.058218337314727 7.082129806337167 0 -1 0
2108 703 2 0.527 25.991984030377147 17.79810589045801 12.70894754618171 0 0 0
275 92 2 0.527 30.954672695723374 18.483053259851843 14.652145742307145 -1 0 0
2284 762 1 -1.054 26.976721891349854 23.509505383775597 10.649836772440139 0 0 0
1846 616 1 -1.054 27.030349993018994 31.005589195244163 6.789204512725636 0 0 0
2257 753 1 -1.054 30.608847225925032 28.244460807317274 17.006131278729647 0 0 0
1969 657 1 -1.054 20.97161599303309 31.4845048474129 14.062740958854002 0 0 0
1404 468 2 0.527 24.372679570800358 23.151821984632832 6.494356502705306 0 0 0
1206 402 2 0.527 23.007572896476674 19.18491056766161 11.937024901735976 -1 -1 0
1949 650 2 0.527 23.054943943106394 22.2874289996373 17.34574013298302 0 0 1
2041 681 1 -1.054 27.62504864410255 29.184677474454688 5.030817978483404 0 0 0
1205 402 2 0.527 22.771229580869566 20.678834540363674 11.87211698132253 -1 -1 0
1788 596 2 0.527 21.587802250339983 21.36306945037542 13.555524896662915 0 0 1
130 44 1 -1.054 23.463585548570492 20.297274687606027 14.756824910602383 0 -1 0
42 14 2 0.527 28.954200771462652 27.979132821638913 12.714444787267492 -1 0 0
64 22 1 -1.054 26.837855990179 22.888995717282917 5.0963548782126935 0 0 1
1786 596 1 -1.054 21.575755491347294 21.90838334752015 12.76894147480341 0 0 1
1787 596 2 0.527 22.40314650352613 22.388846237504687 12.797319253293825 0 0 1
1402 468 1 -1.054 24.976902167258118 23.29376096679453 7.22304997745565 0 0 0
2071 691 1 -1.054 23.08321345177518 31.444990827729846 16.60403448720036 0 0 0
2368 790 1 -1.054 28.02915028299602 17.80912495920592 13.384622404183885 0 0 0
985 329 1 -1.054 31.983693211285846 24.844202197905105 16.9020740424315 -1 0 0
1033 345 1 -1.054 17.60203926552831 20.15208066009197 11.633322188765879 0 1 0
367 123 1 -1.054 26.93765002275542 18.61786868052976 4.70552820800893 -1 0 1
207 69 2 0.527 23.751653032533923 26.8328733704326 8.393721319270167 0 0 1
1617 539 2 0.527 27.955507239986176 21.55906936656067 16.379658486485646 -1 0 1
271 91 1 -1.054 31.924276553368152 18.401541584246225 8.980266573941307 -1 0 0
1989 663 2 0.527 18.485014739796355 23.00769768781445 7.69884376451218 -1 -1 0
1848 616 2 0.527 27.254167714143108 30.368620897492306 6.110674565227436 0 0 0
631 211 1 -1.054 27.016768004992834 24.875648035297367 15.217823739255907 0 0 0
715 239 1 -1.054 23.854199377933696 17.59950129057713 8.925587556609 0 0 0
1224 408 2 0.527 27.851276136085232 27.351584933250365 4.950132155235746 0 0 0
460 154 1 -1.054 28.208992848984018 24.781339803498206 12.811840296149944 0 -1 0
2377 793 1 -1.054 17.690409842901737 25.242198806638633 5.749788120554163 0 -1 0
1775 592 2 0.527 25.112425650668676 19.79472548364405 15.96606749881465 -1 0 0
1222 408 1 -1.054 27.664967152050835 26.431357038554978 4.763865107214124 0 0 0
205 69 1 -1.054 24.55978683824796 26.692710190840465 8.887178330993695 0 0 1
1338 446 2 0.527 20.58477767810625 31.573043593989794 10.790226730373725 0 0 1
1204 402 1 -1.054 23.467785122789294 20.024038332859114 11.919846192526935 -1 -1 0
107 36 2 0.527 19.730832949910848 26.616399703937674 14.424826317436711 0 -1 0
2378 793 2 0.527 18.17428636487284 26.056678582254342 5.612996298198949 0 -1 0
1616 539 2 0.527 28.84664174728203 22.390192932420106 17.277986333283284 -1 0 1
100 34 1 -1.054 31.83486737554753 27.570223887216564 4.50459064862981 0 0 0
2221 741 1 -1.054 20.21258722469534 24.430044356234752 13.867059406949625 0 -1 0
2021 674 2 0.527 26.09820773282388 26.857878736443276 8.159227070868601 0 0 1
1492 498 1 -1.054 20.786277668869637 24.930140751766707 6.484220104346294 0 0 1
1950 650 2 0.527 22.965329694656788 21.993565631375553 15.863345512838583 0 0 1
1897 633 1 -1.054 23.93505886052465 30.300539673079705 8.363085950919288 0 0 1
206 69 2 0.527 24.435299421770623 25.84609431921762 9.316095855828449 0 0 1
1768 590 1 -1.054 29.79948933445384 27.45614081027511 10.714018481735593 -1 -1 0
39 13 2 0.527 22.380277390080813 23.837106737403644 10.280164184621807 0 -1 1
1971 657 2 0.527 21.812425082214368 31.82680953689023 14.366209822206102 0 0 0
1585 529 1 -1.054 17.574639395022928 30.787526569846236 6.184175026750301 0 0 0
1888 630 1 -1.054 22.308430637954736 19.855544363267597 7.805637119750886 0 -1 0
65 22 2 0.527 27.639797987656635 23.409898466086112 5.054222524618818 0 0 1
2062 688 1 -1.054 18.050821277116505 18.37505494377705 4.489927245082396 -1 0 0
370 124 1 -1.054 19.911236058302975 30.964045298473728 4.2245050970784 0 -1 0
280 94 1 -1.054 21.28783245188575 28.123262784141254 11.443512326725546 0 0 0
633 211 2 0.527 26.142434683372535 25.224637501828937 15.044695368584584 0 0 0
680 227 2 0.527 17.752951356749012 31.2592763073148 13.442434139197344 0 -1 0
1249 417 1 -1.054 30.268046255354243 24.060507100890455 7.45909441059492 0 0 1
66 22 2 0.527 26.413257696273554 23.16731640330508 5.907822481931968 0 0 1
22 8 1 -1.054 20.27518192288666 17.75105926035097 11.971835389106696 0 1 1
1774 592 1 -1.054 25.554359173088123 19.39606358724034 16.71572697909892 -1 0 0
368 123 2 0.527 26.21791392999615 18.4836812646776 5.322131414235388 -1 0 1
2037 679 2 0.527 19.35817956940693 18.622691317771945 9.066053673368105 0 0 2
513 171 2 0.527 30.04440397825948 24.485702763094167 3.860716261827669 0 0 1
1619 540 2 0.527 20.984741770492384 25.286715228643963 15.385869114720512 0 0 -1
1713 571 2 0.527 22.38495094795796 28.63747050660406 4.465103605996401 0 0 0
132 44 2 0.527 23.729305951972115 20.267271210093924 13.837739341069678 0 -1 0
1441 481 1 -1.054 23.467977406969183 26.766453928433265 11.800021655081744 0 -1 0
1337 446 2 0.527 20.947468588456132 30.95589503457181 12.124191873065428 0 0 1
2047 683 1 -1.054 26.559762462417098 30.472163920717826 17.236488598869308 -1 -1 0
632 211 2 0.527 27.277523807597035 25.28096799787336 16.044835185039023 0 0 0
2034 678 2 0.527 21.402191534781224 27.228199822619793 8.104717192825845 0 -1 0
2109 703 2 0.527 25.816358937037855 18.33767601746839 11.30541628479839 0 0 0
23 8 2 0.527 20.154516604277404 18.31685968080199 11.209250605270864 0 1 1
436 146 1 -1.054 17.94457241744997 22.421286051227106 14.526521091363279 0 -1 -1
276 92 2 0.527 31.80202759496052 18.883958969130035 13.463388256162307 -1 0 0
1223 408 2 0.527 26.740049464559917 26.418814637203795 4.517702963803927 0 0 0
1350 450 2 0.527 24.64408866238179 27.50161142122576 14.581059033327204 0 0 0
1208 403 2 0.527 31.056405256191226 26.417718716200547 14.054416231971507 -1 -1 0
2036 679 2 0.527 18.943485250412984 19.729744747073312 10.011749939928922 0 0 2
1275 425 2 0.527 25.14993374795413 20.164831054733952 8.79220315447208 0 0 1
2211 737 2 0.527 28.941385709301066 19.68285863857607 16.113309821829745 0 0 0
50 17 2 0.527 31.607407429412355 17.56132922719113 4.077765258358362 -1 1 0
1228 410 1 -1.054 31.534348000175683 21.70584861866937 15.295021437578042 0 0 0
1746 582 2 0.527 24.252800152745813 21.933134734778527 4.090336318801283 0 0 1
1618 540 1 -1.054 21.041112302944924 25.77524136947809 16.207081861434084 0 0 -1
371 124 2 0.527 19.314251262882202 30.804282374259017 4.955470772994942 0 -1 0
2297 766 2 0.527 27.58024268587841 28.396643419468234 8.701413616599716 -1 0 1
554 185 2 0.527 28.15845354995802 25.913108843494527 8.696246243570776 0 0 0
1683 561 2 0.527 24.009723758026723 31.752793882945127 5.10634037854109 0 -1 0
209 70 2 0.527 18.13007022653023 20.776076534795877 15.370758512808571 0 0 0
2296 766 1 -1.054 28.311548824274283 28.994006530705043 8.858175910516245 -1 0 1
1890 630 2 0.527 21.496909706404715 19.78449680826666 8.30824213391763 0 -1 0
461 154 2 0.527 27.864144266855654 24.680577557953427 13.699056302859193 0 -1 0
1260 420 2 0.527 31.715909088325354 20.908074773096516 10.184506477487112 -1 -1 0
1188 396 2 0.527 18.176920467835302 22.274078334245154 5.187913164946665 0 0 1
635 212 2 0.527 29.06279540545586 21.143101766887774 5.162335105528262 -1 -1 0
555 185 2 0.527 29.00756280623483 24.660413938018905 8.655638493597444 0 0 0
1230 410 2 0.527 30.720900967371186 21.69578464864707 15.799430414842371 0 0 0
1766 589 2 0.527 24.94708890568647 27.356508840959812 5.403714905874143 0 0 0
397 133 1 -1.054 17.946846237188453 26.510285850188453 16.019228072506195 -1 0 0
1984 662 1 -1.054 30.958431938418613 20.9956429050102 3.924218103271764 0 0 0
987 329 2 0.527 31.356163708767447 25.219504395204538 16.28435180559798 -1 0 0
1506 502 2 0.527 29.44530374327917 29.400723028293058 7.350627336913606 0 0 0
677 226 2 0.527 26.650174896245787 29.040047631526292 13.505330204871198 -1 0 0
1505 502 2 0.527 30.195122636268643 30.518189239312008 6.657142660886057 0 0 0
617 206 2 0.527 30.655625632740765 24.37590686017613 13.50282789191712 -1 0 0
1473 491 2 0.527 29.22054680175423 19.928524534546746 2.9760584480896313 -1 0 1
1146 382 2 0.527 26.67230067699233 18.017709252489425 3.0397356606557153 0 1 1
532 178 1 -1.054 21.175867991268177 19.16104958348619 31.919112909521168 0 0 -1
83 28 2 0.527 21.797827672446736 23.515338399022347 19.46814135656261 0 -1 0
250 84 1 -1.054 21.285538757734386 23.690814592405758 27.730909182474157 0 0 0
2317 773 1 -1.054 19.28863402457474 18.284713311735104 21.127280221547885 0 0 0
600 200 2 0.527 22.783497185203217 21.296693768052393 26.835711702929032 0 -1 0
239 80 2 0.527 24.998893857479352 26.653134603016994 31.68192409504691 0 -1 -1
1941 647 2 0.527 26.957561471764706 18.248767794875892 19.30988996871001 0 0 0
2256 752 2 0.527 29.200536173352845 25.711408182834404 27.946969853405356 -1 -1 -1
1201 401 1 -1.054 20.21263184780448 31.370545010412933 28.74239713714408 0 0 -1
1310 437 2 0.527 31.065876204888887 25.34776461160442 30.73577537261871 -1 0 -1
517 173 1 -1.054 21.662793090359806 22.86878945288366 30.391418181186403 0 0 -1
2070 690 2 0.527 19.050125723346987 24.2104379975448 18.786953029652587 0 -1 0
1647 549 2 0.527 21.430817372666027 18.098178011532653 28.811208495065536 -1 0 0
1419 473 2 0.527 20.693175465455568 30.248339191273658 17.98457470139881 0 -1 0
9 3 2 0.527 27.526730147564102 24.92161774519728 30.62858033005088 0 0 0
574 192 1 -1.054 26.096976504248865 29.330469435929757 31.52538079860038 -1 0 -1
319 107 1 -1.054 19.151987646072293 22.31448597497623 21.992641482450203 1 0 0
626 209 2 0.527 23.645244703422684 19.079889279009592 27.8531534705552 -1 0 -1
1763 588 2 0.527 19.486881392902788 20.541545061519187 29.365575431535873 0 0 0
1629 543 2 0.527 19.57305166161018 28.10420270920614 20.74889420190474 0 0 0
819 273 2 0.527 31.236577055337023 24.25560447758005 26.475873777250065 -1 0 0
1755 585 2 0.527 28.59603834769078 22.593405417751484 28.376168914805895 0 -1 0
2291 764 2 0.527 27.721601553913104 24.527352398570955 24.392250339419782 0 0 0
737 246 2 0.527 30.609701479746256 26.095480401400543 24.379891966757512 -1 -1 1
1332 444 2 0.527 23.981021417425495 24.819914860606808 18.634356479690666 0 0 0
1546 516 1 -1.054 22.41161832365526 17.83467138458319 20.85261766859982 0 1 0
620 207 2 0.527 30.6207720023351 18.840984661394344 20.95657515132507 -1 -1 -1
2389 797 1 -1.054 19.795339500132677 19.820477585876773 18.552061961732043 0 0 0
841 281 1 -1.054 27.516059476913846 21.730276987923986 30.321072321399058 0 0 0
1790 597 2 0.527 31.303043906138207 19.756972988053633 28.150460918061142 0 0 -1
1991 664 2 0.527 25.09304520666138 31.08033085860489 20.54970171146345 1 0 0
355 119 1 -1.054 26.286226256977955 21.875144086998986 19.04993780212601 0 0 0
251 84 2 0.527 20.3597212539524 23.690958105746056 27.97398908701191 0 0 0
975 325 2 0.527 23.554137050833937 27.424926907874323 21.061812136647973 0 0 0
237 79 2 0.527 23.884371376321518 24.660853886926276 26.12498780030765 0 0 0
2272 758 1 -1.054 29.845535714952817 20.610505700478015 20.412162576230955 -1 0 0
544 182 1 -1.054 24.98217039898278 22.583014672967202 31.75031006913401 0 0 0
1387 463 1 -1.054 19.709630754049137 31.505263936883928 22.178354845709627 0 0 0
2226 742 2 0.527 22.832568899613747 19.230669409705676 31.469477721348078 0 -1 -1
791 264 2 0.527 22.733924436610003 29.52064090545511 30.08227406596427 0 0 0
27 9 2 0.527 30.695490070509386 20.52883634758232 24.52319400636155 0 0 -1
84 28 2 0.527 22.801234099063485 23.943915278306783 20.51760675444848 0 -1 0
244 82 1 -1.054 24.014167979189274 19.624581432968498 19.19403436254384 0 -1 0
2048 683 2 0.527 25.889609930807268 30.717788126453044 17.874289637875272 -1 -1 0
2123 708 2 0.527 27.789895887030482 31.44129524069011 21.461838613433933 0 -1 0
2382 794 2 0.527 17.86700706366933 21.852950673114705 30.789000480585308 0 -1 -1
1022 341 2 0.527 19.04355311837731 31.43061797397229 31.839397541349406 0 -1 0
1023 341 2 0.527 19.057184111875927 31.429932667954297 30.325563407219015 0 -1 0
562 188 1 -1.054 25.400044381438953 27.638636903911134 18.11091527477167 -1 0 0
7 3 1 -1.054 26.84936980779937 24.367445656988956 30.240892248169736 0 0 0
699 233 2 0.527 21.054304717955873 26.354951176212303 27.49995154836109 0 0 0
343 115 1 -1.054 29.638682298002593 29.336769166750443 26.949878677194377 -1 0 0
1203 401 2 0.527 20.21793450494644 31.646886901805665 27.825973156559947 0 0 -1
518 173 2 0.527 21.406993899964924 22.80183987267896 31.31136944352715 0 0 -1
769 257 1 -1.054 22.884252348550568 25.202203742636883 29.647331024760298 -1 0 0
1413 471 2 0.527 31.758855379638057 25.924107313320533 19.453550662290333 0 0 0
1990 664 1 -1.054 25.141561707260216 30.4820804618588 21.29533462775033 1 0 0
1309 437 1 -1.054 31.05067605213773 24.62028004106994 31.357676466134762 -1 0 -1
1933 645 1 -1.054 28.887167916536335 22.216594827948136 22.294266838126433 -1 0 0
1471 491 1 -1.054 29.05607892262291 19.50760259298079 31.22452586167593 -1 0 0
2318 773 2 0.527 20.201690685546808 18.34385053156805 21.40844940585606 0 0 0
672 224 2 0.527 20.581892555734747 25.56127236299806 22.72905891109218 0 0 0
1389 463 2 0.527 20.37055818005461 31.868990139651316 21.58919953796223 0 0 0
588 196 2 0.527 21.73376332555675 24.930999617144074 24.93760777986825 -1 0 1
2220 740 2 0.527 24.717366932479486 31.289462980705686 22.939428965424646 0 0 -1
1901 634 2 0.527 17.74751456089971 19.836566731492148 24.658582516585533 0 0 0
2218 740 1 -1.054 24.556323713658855 31.94751140852194 23.615641325971815 0 0 -1
2066 689 2 0.527 23.114592339683618 21.05308766516621 22.485976700305393 -1 0 1
2390 797 2 0.527 19.005954818854285 20.222901500737365 18.189912003130807 0 0 0
2273 758 2 0.527 30.22350067663043 21.259430998676976 19.81864401500787 -1 0 0
357 119 2 0.527 25.593925355485084 21.214366007611368 19.067759419987553 0 0 0
1945 649 1 -1.054 28.12598111626076 31.948151434361677 31.628265914710646 0 0 -1
627 209 2 0.527 24.82296719421324 20.004540063832458 28.0764709945497 -1 0 -1
598 200 1 -1.054 22.123752840894646 21.749713747181005 26.31060585225773 0 -1 0
698 233 2 0.527 19.985585304050538 27.15297585270578 26.783798280830702 0 0 0
1417 473 1 -1.054 21.195389106906966 30.113421297402034 18.788194291348127 0 -1 0
1581 527 2 0.527 31.331931912080464 19.598584865843208 26.105203701112167 0 0 -1
1472 491 2 0.527 29.562567441910254 20.02275992718174 30.59658629893174 -1 0 0
123 41 2 0.527 26.283051313361646 27.07445393306756 29.65861349493251 -1 0 -1
1764 588 2 0.527 20.347378060961255 21.55377907145442 30.091390699662846 0 0 0
2207 736 2 0.527 20.678484644081088 31.40659831643557 25.803517290789678 0 0 0
299 100 2 0.527 22.608344090155427 26.963736517498923 19.204352291278617 0 0 1
1754 585 2 0.527 28.59451248527367 21.860641601418294 27.051429367111425 0 -1 0
649 217 1 -1.054 22.878132425742365 28.96094231598279 21.736339642546575 0 0 0
2231 744 2 0.527 25.743912739070986 19.603883990131237 29.90176785605589 0 -1 -1
795 265 2 0.527 17.556308235733503 28.205447606548738 21.448295068698428 0 0 0
2069 690 2 0.527 20.3130031061324 24.812288238281617 19.365569612840865 0 -1 0
1388 463 2 0.527 19.637650444315717 30.586350697603763 21.920201624311346 0 0 0
1330 444 1 -1.054 24.277920859661513 24.997297432310816 17.741825284775118 0 0 0
2180 727 2 0.527 24.880139840601224 23.618284166404024 21.531191803680954 0 0 0
1818 606 2 0.527 31.47801650903802 31.376129522178857 26.58488465683618 0 0 0
2019 673 2 0.527 21.89781552589183 27.181266529026907 24.232326832908555 0 0 0
576 192 2 0.527 25.85420498226621 29.114126892578483 30.625112132587958 -1 0 -1
1083 361 2 0.527 18.40200356069616 26.10190577524625 19.85360730939037 1 0 -1
843 281 2 0.527 28.23115594485011 21.205482418430726 30.680868769492598 0 0 0
2293 765 1 -1.054 18.432628513672668 24.748600222593673 24.83500245910806 0 -1 0
587 196 2 0.527 20.23229637827786 25.002342994547917 24.7576433663697 -1 0 1
1589 530 2 0.527 21.237117172118268 19.8948553794676 23.204844655752233 0 0 -1
44 15 2 0.527 31.333930168980885 21.529567714638148 29.849209732765253 -1 0 0
564 188 2 0.527 24.799950876426536 27.447357180973817 18.831696544990653 -1 0 0
590 197 2 0.527 27.86268939018916 27.167915351188356 19.68319552424405 0 0 0
2225 742 2 0.527 23.4105268985191 20.531924282302263 30.955103997388086 0 -1 -1
2290 764 1 -1.054 27.26974987961239 24.148941765337973 25.146479238679454 0 0 0
1634 545 2 0.527 18.18278999027735 22.61920258307891 20.257983721294437 0 0 0
2017 673 1 -1.054 22.049773280590543 28.12632442283668 24.231831715088333 0 0 0
2216 739 2 0.527 30.43866783629376 17.532211506408878 22.808719833664732 -1 0 0
2152 718 1 -1.054 25.369242526114142 29.10514265224471 25.876440608589085 0 0 1
1940 647 2 0.527 25.47362620754975 18.524455122896896 19.427417169960634 0 0 0
1449 483 2 0.527 18.729633564666848 27.891864682057424 28.57197684775369 -1 -1 0
1663 555 1 -1.054 22.48506881852795 30.72693166520854 25.88638088804148 0 -1 -1
1088 363 2 0.527 28.57993490443895 25.294199367843696 21.639761176182944 -1 0 0
575 192 2 0.527 26.32414740679537 30.259852352318262 31.495943521086467 -1 0 -1
783 261 2 0.527 25.286194261300807 30.170482751054784 28.08706373903108 0 0 0
725 242 2 0.527 28.6800168802933 31.786085739200587 25.624810741355567 0 -1 -1
817 273 1 -1.054 31.497750373991828 23.34237045153887 26.594271454246424 -1 0 0
2174 725 2 0.527 23.33588920254055 17.518877867597304 24.668198818519983 0 0 0
792 264 2 0.527 22.842495092826937 28.737940769450475 28.790967384147727 0 0 0
8 3 2 0.527 27.242403186257356 23.495268056826212 30.208384225014775 0 0 0
82 28 1 -1.054 21.965165052770892 24.192659241154658 20.12347373634367 0 -1 0
842 281 2 0.527 27.037286688549173 21.12638237804532 29.753345506120894 0 0 0
1903 635 1 -1.054 17.88951052972494 30.121606418169797 19.01532825748722 0 0 0
1144 382 1 -1.054 26.67423315139697 17.824897574744103 31.194430069887964 0 1 0
818 273 2 0.527 30.685202065435263 22.887057634320115 26.814909982581042 -1 0 0
55 19 1 -1.054 30.3979422820478 29.348136261175533 31.89675890651251 0 0 -1
1396 466 1 -1.054 27.840762639873553 17.76693164738883 25.012079975903326 0 1 0
982 328 1 -1.054 24.488286852612397 18.047402971854385 22.711317868087164 0 1 0
366 122 2 0.527 24.00428566915977 27.962046415037058 26.55166636087626 0 0 0
252 84 2 0.527 21.749576090213637 23.848192922891123 28.55317882846891 0 0 0
1602 534 2 0.527 29.552365473220007 27.275946170344838 25.909042762452586 -1 0 0
1601 534 2 0.527 30.916552753326684 26.71345978341433 26.247394881174188 -1 0 0
1646 549 2 0.527 22.490999510457826 18.448253791550755 29.833627608661743 -1 0 0
2179 727 1 -1.054 24.53680322586301 23.494948740774362 20.646243028469016 0 0 0
748 250 1 -1.054 17.816478862603773 18.305760323677504 30.517047905643842 0 0 0
697 233 1 -1.054 20.155154869472327 26.669879259129246 27.592556366107594 0 0 0
1665 555 2 0.527 22.803196215987548 29.844235417507946 26.075769728335224 0 -1 -1
2014 672 1 -1.054 28.478490964645275 24.02109291206805 18.586820745119123 -1 0 0
1149 383 2 0.527 26.82785309706835 20.95956471265241 25.45248944532574 0 -1 0
1202 401 2 0.527 20.934632763546006 30.745619635260894 28.808796244493358 0 0 -1
736 246 1 -1.054 30.89130100055697 25.793929881327323 23.516182054354502 -1 -1 1
1588 530 1 -1.054 21.371106318615027 20.0074273628844 22.26378125161552 0 0 -1
238 80 1 -1.054 24.947992472347522 26.601232198924144 30.72749178109961 0 -1 -1
377 126 2 0.527 28.206509434997898 30.116545980535882 18.193116507068474 -1 0 0
1469 490 2 0.527 21.202753465112508 21.13013641319312 18.858327459202485 -1 0 0
2230 744 1 -1.054 26.226101909553 19.587262031802638 29.075061681838292 0 -1 -1
1878 626 2 0.527 18.909151519162673 29.229785768858406 25.10181523744778 0 -1 0
2068 690 1 -1.054 19.622422727316966 24.975041084645625 18.723046403913713 0 -1 0
983 328 2 0.527 24.72154301548631 18.97295451068068 22.78323251363487 0 1 0
2154 718 2 0.527 25.40003847096242 30.05978989904466 25.939098809674505 0 0 1
26 9 2 0.527 30.454526641766044 19.035146141808752 24.575216964844024 0 0 -1
2294 765 2 0.527 18.270387707636505 25.498140269785168 25.40779686204703 0 -1 0
401 134 2 0.527 26.248153187008512 25.075824384566936 26.569184909906703 0 0 -1
1148 383 2 0.527 28.27543749132237 20.555101472155414 25.27141224623012 0 -1 0
2083 695 1 -1.054 31.85853338809376 21.74732118048947 24.038104398152583 -1 0 0
2153 718 2 0.527 25.869054990015684 28.900257399484502 25.086228411068937 0 0 1
1730 577 2 0.527 25.737429847291374 23.99488064466776 23.84234257843074 0 1 0
1628 543 2 0.527 20.20720809718494 29.298769548367794 20.06864736832717 0 0 0
2067 689 2 0.527 24.217939644375782 21.99625033370721 22.91603375372808 -1 0 1
770 257 2 0.527 23.314710745552254 25.600149230589317 30.40401506794295 -1 0 0
1934 645 2 0.527 29.167857818600886 21.876905490026594 23.144002171601628 -1 0 0
1939 647 1 -1.054 26.144017823239196 17.879803737327663 19.653747610630724 0 0 0
693 231 2 0.527 31.37813494014334 23.060845560827076 19.731103717489077 0 0 0
1398 466 2 0.527 27.26247921737974 18.50943304499391 24.837420966183245 0 1 0
1654 552 1 -1.054 18.78819679765737 24.63285882236459 29.06124913780365 0 0 0
790 264 1 -1.054 22.510268908345587 29.559660969107767 29.15239159009834 0 0 0
570 190 2 0.527 27.833966236145613 29.358061412455015 24.332406052043147 0 -1 0
25 9 1 -1.054 30.08468253261139 19.871812823476155 24.857050335741974 0 0 -1
1470 490 2 0.527 22.710123333138604 21.064610053754144 18.982514519682027 -1 0 0
122 41 2 0.527 27.762414117492483 27.174801314447045 29.353169315605605 -1 0 -1
974 325 2 0.527 24.87985010812759 26.72304972594629 20.857524555485057 0 0 0
771 257 2 0.527 23.34812663689297 25.561352710038058 28.890985577353675 -1 0 0
1021 341 1 -1.054 18.641577344882243 31.84995437151111 31.078609602974694 0 -1 0
2304 768 2 0.527 26.874622702823928 29.664838243792886 20.965996591464062 -1 -1 0
1105 369 1 -1.054 19.952146017418883 19.05533716406498 28.117237511190353 0 -1 -1
1468 490 1 -1.054 21.992106580247743 21.66698511665279 18.788035698471298 -1 0 0
621 207 2 0.527 31.81440743455986 17.909933362236625 20.97263590308701 -1 -1 -1
298 100 1 -1.054 22.15675632655436 27.533787922850102 18.58198930549512 0 0 1
687 229 2 0.527 23.06259810489943 31.80509486133993 27.30011760915989 -1 0 0
2310 770 2 0.527 21.940905110403307 18.920924775464993 25.35178096817097 0 0 -1
546 182 2 0.527 25.594236954273022 22.503618079898175 31.018670458971968 0 0 0
383 128 2 0.527 24.797031305713645 19.922755499691647 25.767694916058225 0 0 -1
2232 744 2 0.527 26.078209542828013 18.707297986495263 28.728627101207003 0 -1 -1
1947 649 2 0.527 29.043583494334882 31.687456784598552 31.549082892091263 0 0 -1
2295 765 2 0.527 17.568204904554744 24.511841617660252 24.498932580344444 0 -1 0
1089 363 2 0.527 28.75693216839626 24.003586856700295 22.411040209208934 -1 0 0
300 100 2 0.527 21.67309258782413 26.933793186778132 18.01427325336494 0 0 1
400 134 1 -1.054 25.53613254708008 25.51991600589774 27.029657561523365 0 0 -1
345 115 2 0.527 29.309915937510517 30.175657028322398 26.62676005206724 -1 0 0
1877 626 2 0.527 19.811465819485036 29.184310687129333 26.316574858175372 0 -1 0
1081 361 1 -1.054 18.058440206069875 26.64775689832988 20.560881434478603 1 0 -1
1539 513 2 0.527 31.361174532181877 29.01841361830155 22.03151920670195 0 -1 -1
2181 727 2 0.527 25.106538640639855 22.830845693049184 20.258177894608387 0 0 0
738 246 2 0.527 30.08655246180576 25.49668524047965 23.091622015628126 -1 -1 1
1590 530 2 0.527 20.68628106529426 20.619995198484396 21.99545148198778 0 0 -1
235 79 1 -1.054 23.34892610979083 24.21550373230358 25.468339129019853 0 0 0
1731 577 2 0.527 24.235198515088776 23.926752365437423 24.017098320900274 0 1 0
1905 635 2 0.527 17.620841294089047 29.734621385699427 19.84856603685641 0 0 0
2274 758 2 0.527 29.151413564754897 20.19376696623724 19.901526625584843 -1 0 0
1006 336 1 -1.054 23.488816997418425 30.08392915945292 31.739651421653413 0 -1 0
1900 634 1 -1.054 17.814887690857574 19.99346606715791 23.71673897764051 0 0 0
519 173 2 0.527 22.41545896970483 23.460154875192814 30.39403656228081 0 0 -1
320 107 2 0.527 19.208696495376735 23.21510990277072 22.311838050321576 1 0 0
2391 797 2 0.527 19.471337879724395 19.210377073348752 19.214652410066194 0 0 0
72 24 2 0.527 21.57755004636808 31.76954716114352 19.794410979361203 0 -1 0
384 128 2 0.527 24.994344790723126 20.522868779886792 24.39190004735191 0 0 -1
240 80 2 0.527 25.102712155523598 25.67776031890061 30.528777553014244 0 -1 -1
2255 752 2 0.527 30.370164532435048 26.201970705602598 28.773527738885655 -1 -1 -1
1876 626 1 -1.054 19.57873477171748 28.694574828587697 25.52776510835983 0 -1 0
245 82 2 0.527 23.331843778115008 19.03022481623593 19.506123637195323 0 -1 0
365 122 2 0.527 22.601257581447065 27.798117634987378 26.00713020825797 0 0 0
1992 664 2 0.527 24.314407316974588 30.000977318334 21.271227195142515 1 0 0
2292 764 2 0.527 27.558800036020152 23.236650750024495 25.166501562447046 0 0 0
651 217 2 0.527 22.801004233170502 28.670671376085373 22.64519596847083 0 0 0
2065 689 1 -1.054 24.00837640740157 21.066403389781023 22.828319423373664 -1 0 1
1266 422 2 0.527 29.355997345246728 18.469617527025882 19.0632464943613 0 0 0
1904 635 2 0.527 18.63020604547733 30.684736466785168 19.240006925666762 0 0 0
364 122 1 -1.054 23.112418937892294 27.733894403785257 26.813861416425247 0 0 0
2015 672 2 0.527 27.78964853788083 23.900797612829344 19.24046509958275 -1 0 0
1548 516 2 0.527 21.97761092654021 18.670698460946756 21.02268274572802 0 1 0
1655 552 2 0.527 18.072266097797815 24.950672283849137 29.6113978977475 0 0 0
1106 369 2 0.527 19.96095213155448 19.70703560538408 27.416211484008414 0 -1 -1
1753 585 1 -1.054 29.179622839257966 22.189679996758322 27.73378219631779 0 -1 0
1311 437 2 0.527 31.029022912347962 23.836100059260666 30.8092070517599 -1 0 -1
121 41 1 -1.054 26.903980113603055 27.461297221889886 29.041340880902204 -1 0 -1
2259 753 2 0.527 30.798223167626034 27.92912945910254 17.889832973499367 0 0 0
671 224 2 0.527 20.86449286849554 25.051090527572306 21.332015037716403 0 0 0
586 196 1 -1.054 21.0408342110484 25.478376658276737 24.568211753761958 -1 0 1
1600 534 1 -1.054 30.032848316191973 26.451927065111313 25.988758232845264 -1 0 0
1762 588 1 -1.054 19.457756382790798 21.202121576768263 30.057685377198915 0 0 0
591 197 2 0.527 28.307769690442548 27.482194391684438 21.0956445683902 0 0 0
1418 473 2 0.527 21.65439297981323 29.285213405828053 18.648148088263625 0 -1 0
1645 549 1 -1.054 22.298163699222798 17.838240640129072 29.121641599043173 -1 0 0
2303 768 2 0.527 28.258158147299433 29.807925819266345 20.36830464308168 -1 -1 0
534 178 2 0.527 20.57556748037176 19.816032670631543 31.562935649587942 0 0 -1
568 190 1 -1.054 27.250424452477866 28.691831958452255 23.96930383261452 0 -1 0
2309 770 2 0.527 21.448736461914315 20.34642910826785 25.48439903532023 0 0 -1
1516 506 1 -1.054 17.785239281984516 21.556278046905213 26.783462831966645 0 0 0
691 231 1 -1.054 31.12984612242986 22.535251720089548 18.970623804427298 0 0 0
1789 597 1 -1.054 31.23132006098514 19.93452748210518 29.088307316675113 0 0 -1
1816 606 1 -1.054 31.864978590674063 30.962083384179834 25.813488539713795 0 0 0
589 197 1 -1.054 28.361445922513205 26.80911911749093 20.417179834906783 0 0 0
446 149 2 0.527 31.10409321383233 23.21219371535335 21.964420921666743 -1 0 0
619 207 1 -1.054 30.86114744776402 17.917137107302437 20.88621084187922 -1 -1 -1
2016 672 2 0.527 29.27867043371429 23.732073716692433 19.025462434410905 -1 0 0
1633 545 1 -1.054 17.67964093590438 22.85631181434487 19.478980500523996 0 0 0
1664 555 2 0.527 23.080656191530352 31.05754525147138 25.213925543436268 0 -1 -1
1087 363 1 -1.054 28.5020323094162 24.920073149285166 22.517363893151213 -1 0 0
896 299 2 0.527 29.89451613455659 31.43461710125476 23.34351755395621 -1 0 -1
1729 577 1 -1.054 24.92506600694903 23.846026271847215 23.358469456821553 0 1 0
2308 770 1 -1.054 21.207285919786997 19.492578948297478 25.125417982389024 0 0 -1
2319 773 2 0.527 18.783721226539384 18.33785543625216 21.938738641322487 0 0 0
1498 500 1 -1.054 31.70863643285223 19.128567030231544 17.50476575267121 -1 0 0
692 231 2 0.527 31.549944941411383 22.9718959036298 18.229621312033252 0 0 0
2254 752 1 -1.054 29.44520110095229 25.96403815809294 28.837218661460128 -1 -1 -1
344 115 2 0.527 29.575592287380353 29.405154230337473 27.902542795153487 -1 0 0
321 107 2 0.527 18.645909521862393 21.85404218848293 22.66204587042418 1 0 0
973 325 1 -1.054 24.010125716414343 26.82545423368429 20.471106913694648 0 0 0
1518 506 2 0.527 18.07063793528549 22.468923921568823 26.826485135316297 0 0 0
376 126 1 -1.054 29.018731470425024 30.097785786989256 18.699248121732136 -1 0 0
1935 645 2 0.527 29.197209422774634 21.568022377714442 21.662243072078887 -1 0 0
569 190 2 0.527 27.24544498579546 28.86451205404694 23.027824811524532 0 -1 0
1147 383 1 -1.054 27.717775858379056 21.312071383483783 25.45095568261462 0 -1 0
382 128 1 -1.054 25.407232192604255 19.94148810713844 25.03045019343655 0 0 -1
650 217 2 0.527 21.98252576054147 28.93557981320476 21.39948470268388 0 0 0
236 79 2 0.527 23.01360942729518 23.439869424086083 25.917983390052648 0 0 0
599 200 2 0.527 21.813156218870738 22.458078344789044 26.87449883668107 0 -1 0
2224 742 1 -1.054 23.62755779120176 19.61022889716112 31.095107510211406 0 -1 -1
625 209 1 -1.054 24.003563696716583 19.92690363890152 27.58782357187797 -1 0 -1
781 261 1 -1.054 25.915357591321197 30.026520702995477 28.79392610424454 0 0 0
445 149 1 -1.054 31.618312737352326 23.688707873554073 21.312701398978916 -1 0 0
897 299 2 0.527 30.23182189133007 30.82570646095423 24.687888318076567 -1 0 -1
402 134 2 0.527 25.976585791040335 26.13113322347676 27.620115199626717 0 0 -1
670 224 1 -1.054 20.210162955800186 25.52224544647826 21.847855310755293 0 0 0
895 299 1 -1.054 29.493490127257587 31.11476023196341 24.151660828693004 -1 0 -1
2018 673 2 0.527 21.17378562375849 28.51026520184969 24.270053212721777 0 0 0
1627 543 1 -1.054 19.97399491156738 28.954160407557467 20.93066938607228 0 0 0
782 261 2 0.527 26.33022171541802 29.190982855317003 28.579472954151704 0 0 0
2302 768 1 -1.054 27.804228625388504 29.615686496794332 21.188803164119065 -1 -1 0
1082 361 2 0.527 18.603399252187934 26.431294555731597 21.317445710822625 1 0 -1
356 119 2 0.527 26.30181286996327 22.18200590304349 18.143395648009058 0 0 0
1145 382 2 0.527 27.51376137820263 18.162073614120096 30.881811326885796 0 1 0
1656 552 2 0.527 19.2217680422404 25.427093000086195 28.749105233381854 0 0 0
1107 369 2 0.527 19.392031959616816 18.353585262807567 27.785511211447705 0 -1 -1
1412 471 2 0.527 30.40311394404788 26.306259776404495 20.00835227662357 0 0 0
2208 736 2 0.527 19.249866320510215 31.373056705511942 25.303712646827 0 0 0
1264 422 1 -1.054 28.518425683410513 18.757026115616092 18.69979663439259 0 0 0
2126 709 2 0.527 28.831150098842997 25.614196734966228 17.818479180037876 -1 0 0
43 15 1 -1.054 31.574423640405996 22.170630379158474 30.51810989311025 -1 0 0
2206 736 1 -1.054 19.81576762821672 31.794270493486565 25.950675182826217 0 0 0
45 15 2 0.527 31.438388056718637 21.713848413711865 31.348212535312094 -1 0 0
246 82 2 0.527 24.070277519873486 19.45306104638191 18.25400336946192 0 -1 0
1411 471 1 -1.054 31.0943068277834 26.61225636716876 19.421117689032904 0 0 0
378 126 2 0.527 29.63725999751324 29.624287905447282 18.14296756784905 -1 0 0
911 304 2 0.527 26.338369405683842 32.00232827969998 29.329895872129455 0 0 0
1791 597 2 0.527 31.015274480568365 19.08698541423319 29.47718071615509 0 0 -1
984 328 2 0.527 25.327407129168257 17.586964118830405 22.7212692851119 0 1 0
563 188 2 0.527 25.6572741221201 26.778782350223608 17.77818595163406 -1 0 0
724 242 1 -1.054 28.575594750790223 31.94972351917908 26.5621177827694 0 -1 -1
1265 422 2 0.527 28.683870814310616 18.852303736498847 17.7618329569311 0 0 0
1448 483 2 0.527 17.640660182464096 27.35778914606439 29.477946111863695 -1 -1 0
1053 351 2 0.527 31.67689543509021 31.554761640205584 21.47419370667444 -1 -1 -1
2084 695 2 0.527 32.02303231437235 22.634746276303524 24.35691872223871 -1 0 0
1007 336 2 0.527 23.494576065395755 30.941704639984273 31.314899908068476 0 -1 0
56 19 2 0.527 31.022844867187565 30.04544174028151 31.6980440310057 0 0 -1
1008 336 2 0.527 24.392708406812716 29.7763868023481 31.67165285920543 0 -1 0
1447 483 1 -1.054 17.779468183852472 27.797522920799715 28.639142014410368 -1 -1 0
686 229 2 0.527 23.566764765256863 31.83535764381353 28.727275678448386 -1 0 0
211 71 1 -1.054 17.640731919206146 30.60841602867214 24.533157768337574 1 -1 -1
750 250 2 0.527 17.661021879642114 19.08139103709837 29.978108268166658 0 0 0
1234 412 1 -1.054 31.89587108331883 31.81887337537968 30.39500896441136 -1 0 0
350 117 2 0.527 24.094330666821755 31.8145606429419 18.23597536188492 0 0 0
1236 412 2 0.527 31.40302252508345 31.697970854299854 29.583400252461274 -1 0 0
487 163 1 -1.054 25.787545491881346 31.939955765374116 26.288063243275566 0 0 0
2376 792 2 0.527 27.213857855336286 17.57195102988211 26.561569480268496 0 1 -1
349 117 1 -1.054 24.791378067436682 31.948110715951067 18.87824875962054 0 0 0
1547 516 2 0.527 23.124206329533884 17.800014856754125 21.49077366494747 0 1 0
1454 485 2 0.527 21.056416131171765 18.73017356138689 17.51333646263751 0 0 1
533 178 2 0.527 20.80996230508672 18.32229499781289 31.638346877300123 0 0 -1
1537 513 1 -1.054 32.003644038524605 29.713238777443834 22.175313260407748 0 -1 -1
1499 500 2 0.527 32.03535396807175 18.259575840892644 17.737866087067303 -1 0 0

Velocities

1488 -0.015307117056203311 -0.008224769192402713 -0.0017902500484948613
1556 -0.0009226920292483205 0.008836175066417594 -0.0029804881263486233
1423 0.0007338715404611718 -0.004844185582261331 0.005891312676545739
178 -0.000362567289286762 -0.003901435437639546 -0.004306186984236792
665 -0.017692271261895934 0.003780754741051551 -0.0050279740352693605
1641 -0.004950638685981486 0.014298537852135147 0.006167074406062593
2234 -0.012294035802019907 0.0009859350994729735 0.03045625125328705
417 -0.009892055783913575 -0.0062073754336557894 0.0006097578449432833
585 -0.014137182973867455 0.009860932283448502 -0.0059391920072265885
352 0.003306233335645619 0.0019577344269984293 0.004795984312152315
1048 0.0022166001945954973 -0.0008652772331696372 -0.0009740859043716119
936 0.010066509125551537 0.004086327343410193 0.004487768585704177
666 -0.0028707720578836243 -0.00641939014272761 -0.015011039650740313
421 -0.0007128294293443337 -0.0052193715779349555 -0.0038466478205317176
278 0.017737493268860715 0.013082010236726477 0.0019415185173854562
1237 0.00408360262279277 -0.0015343780679109545 0.0013244416019451023
584 0.008139025054070702 -0.008207218229038122 0.004131463747109475
2365 -0.0004576196479604376 0.00334769807300502 0.0007261741141279505
104 0.011583124333580752 -0.02031034613521567 0.010713768196077389
1852 0.00515478467200034 0.0010261976633716679 -0.0048218117802370135
1277 0.007563773722753654 -0.002651131890901464 0.003528758214014188
157 -0.0018741916738949844 5.016303872126385e-05 8.145830310097317e-05
1639 -0.0018353865960216947 -0.001160815982027992 0.0021676577030289154
2333 -0.0036016968518840994 -0.008234510587477907 -0.004249025199866167
1741 0.0035894453049212945 0.0024043510721713105 -0.0005056203367777923
1916 0.006043343853093249 -0.009633637663416458 -0.011959207648674709
927 0.002969502122981804 0.002749240827889535 -0.0011796721893471234
926 0.002873170318141906 -0.0038580664223786766 0.001981055006394846
933 -0.007736747528999841 -0.013247017476623508 0.011493475186873848
1280 0.008145971436425571 0.006220019400901743 -0.021477926885770618
2332 0.0020258009582096483 -0.0014645709024658704 -0.0014136898140030315
152 -0.0077956444878327785 -0.0039669439968829405 -0.0011861124053787655
14 -0.022967756019702287 0.005336153619414546 -0.00861106692860989
932 -0.004828192696205664 -0.005875577509318953 0.003978548287913872
15 -0.010781483077328157 0.0029176723425814333 -0.01643893931206634
1743 0.00016940960688214784 0.005227151798320547 -0.0020866265188680512
542 -0.0034306255869937133 -0.004777440707238103 -0.002325407039289059
2344 0.0004417432887607778 0.0002957083209027368 -0.0022726138753061936
2171 0.018914266115403977 -0.0067132465693560675 0.0015959077825551582
1612 0.0015641012219673952 0.012688573126500534 0.0012957920085858426
1709 0.01448678362530715 -0.006663195186324785 -0.022737943913460228
1041 0.010711478767335907 -0.00436299146904269 -0.0077179193128754315
327 0.019072719262769634 0.0006921481906767919 0.026722513845570152
1130 0.010733958662464365 -0.003209706368813526 -9.003052743396352e-05
956 0.020147011452867604 0.008599719557888939 0.0046599218768977775
412 0.0026466119847628434 -0.004743329665794708 -0.0005451118433745033
374 0.02777421898288363 0.007892130296635453 0.010873658030675706
1781 0.006749681422765306 -0.0016199927783553396 -0.007151523389317193
729 -0.018768166674322163 -0.02261566291779086 -0.03864720953517286
1653 0.0009414768667815011 -0.006779105317729056 0.002889470968154635
566 -0.0032536728514633265 0.010185811900916037 -0.005817566449374503
1557 0.0052086480565887985 0.0020677102120872405 0.018318256879776392
353 0.009271864726859055 0.017835488667866228 0.005295431886885203
2267 -0.009118930183473964 0.015566474331177027 -0.015354666428012184
1840 0.0007973743543713904 0.0059532624454075094 -0.0076179067404688544
2007 0.005065558750880711 -0.013287110754445518 -0.002198969897156786
872 -0.012606602335073751 -0.01372950359847594 -0.009587335087631533
2329 0.007345218517428061 0.002178385311370208 0.0005540095940986186
567 0.008386026896620574 -0.0013342093505222805 -0.0254925702520813
1024 0.003301167268890479 0.008348094421009446 -0.0007751186366929529
1784 0.012766265254310454 0.028031940213557278 -0.009826744230293677
1486 -0.003037331124403054 0.0014735314863356698 0.0014471110402304711
1482 0.004777374141254639 0.006364169335777156 0.008703892318734079
159 0.00160350049603667 -0.00793272710554088 0.01579196035558322
354 0.00013125347816573537 -0.01518902570394756 0.016021362070714324
798 -0.007543720766706687 0.004756069551402744 -0.004166373056218365
1367 -0.01006672672203512 0.026487066830739887 -0.03871934954910212
1613 -0.014940270328940672 0.007775333659241093 0.002874934038313311
645 -0.006012349954786598 -0.010962296604041709 0.006814295466252069
476 0.004681396417509841 0.0031198214423829684 0.007401722700480109
151 -0.006711273786437214 0.0036942473253815736 -0.005307089773646321
81 -0.012200789742631498 -0.004005796330013439 0.013314057741556792
326 0.009415290577812001 0.006560975284423165 -0.02468733885674222
1424 0.004939766360273995 0.0008305950790651234 -0.01775278575331958
909 -0.01250660821949972 -0.005094810325208872 0.002486034679204545
1239 0.0035456464579966896 0.01224004604731509 -0.002192696651684997
180 -0.0016996794526601964 -0.010023052754291915 -0.005335402123172207
2366 -0.016857071518052366 -0.006464893483287737 0.008459562355774044
413 -0.008737380146544228 -0.006694059358350994 0.029875614809224346
695 0.00645775357162742 0.001610632746979676 0.011834946725421062
860 0.01653580912557977 0.007313900387169961 -0.005785523050938191
1421 -0.004934722343733382 0.008464427612850036 -0.014506137443924516
168 -0.004332147902032727 0.010830632350081965 0.0004965959248369298
423 -0.0015013120805448983 -0.007290062711501432 -0.001781890564126378
664 -0.004803916898296925 0.0023887618486441555 -0.007134036629073683
1614 0.01298641472121271 0.015595226415845067 0.011968391957737854
181 -0.011034400419128261 0.007111830168935514 0.003304682642045763
2170 0.006181645551231215 -0.0002277583409716279 0.004462714821030015
2057 0.007575348415730449 -0.02601737434043821 -0.006913265540343222
1915 0.0034853240524048627 -0.0029510900427087293 0.0009463765922441126
1649 -0.007374994634201456 0.0088106744209985 -0.0072542860765608995
1039 0.0023406169714567967 0.006315627938975251 1.60807412135107e-05
1050 0.013558327976856386 0.016301778390651164 -0.00027902373984179686
1049 -0.009921204200522173 -0.005318168540828375 -0.002570732950901541
1189 0.0029052437474531164 0.002337706105286028 -0.0033077835529875766
1276 0.0016956007051486277 0.002895904098510635 -0.0013967492902604366
1197 -0.013618299799294483 0.005485411059553911 -0.026159664691032387
595 0.0010464844350123606 0.006094459609217257 -0.007047509670738878
416 -0.008145147259431267 -0.0025723124954254413 0.004023510513311283
2367 0.006544537748851362 -0.012380384306169702 -0.03406654015569846
2077 0.005380613065577765 -0.0012970687642852238 -0.004809336217527002
103 0.00628129694693514 0.0071393345165707365 0.0013423099736795897
571 -0.009025014428101781 0.00519364040235826 -0.0033891444026434236
89 -0.014226489164484424 0.002558412118396622 -0.013303666910799036
2253 -0.00974008329892792 0.011025478051007788 -0.005226734227944726
145 -0.0047874245280979996 -0.0033243490969940667 -0.004841798406459155
1710 -0.017563707139746143 0.005640291039387476 -0.015535722327424794
1652 -0.004660457677991562 -0.004955930928221216 -0.0017992153379408605
90 -0.008240408037023176 -0.004587882835426553 0.0028834018714362464
925 0.0033597960933745624 -6.528814989566867e-05 -0.00280167829567847
464 -0.014812444580915903 -0.005950714499587125 -0.008502804552255806
1854 0.02198312161333997 0.0021843521920238227 -0.004555067097348924
2282 -0.010214208176267633 -0.006449912085947268 0.006703592518825265
406 -0.008533831797218451 0.004354069380496596 0.003079302506236979
1659 0.004542543764790114 -0.015211388325880816 0.015867023756597137
147 -0.010906444029775694 -0.01411850325557396 -0.002645960148799141
1533 0.005142167837716415 0.004972875602087956 0.007541840094331468
2079 0.0001619990929595459 0.0033161507416393883 0.014820947900724673
1458 0.024103718983323412 -0.0017408982967890842 0.0017047992216842266
325 -0.0014849488894332972 -0.00528375960004986 0.0038805774883635805
644 0.02115947671302953 0.0007500121094705373 0.007147593657626106
1279 -0.0035535205006104052 -0.007331900577835189 -7.087857638768732e-05
873 -0.01788942452580536 -0.0041516261522332315 -0.0013242823131762733
105 0.005351702131488714 0.005485224181093646 0.002732045287846826
425 -0.0013892537849067076 -0.012541330267227976 0.02689598836294672
195 -0.0071733893694366745 0.0001298780456716529 0.000549656509364065
1457 -0.01537152281818213 0.005132575519219839 -0.004301641043277136
80 -0.008364676986578765 -0.000922264141992796 -0.012086713676239504
2331 0.0022322909412742934 0.0026472877837384837 0.004246617781294422
1853 -0.007877489818162949 -0.014729989548617461 0.01686606904620953
1863 0.005627109285423519 -0.006436755881859769 0.00024000105289565896
1862 -0.0031353242531007913 -0.010634992527393833 -0.01722263218719305
643 -0.003360445587934158 -0.006522292158314789 0.00867024748334372
1640 -0.002365688678889123 -0.005170806272894242 0.007719961439214064
1256 0.008716514198811386 -0.005037381379274437 -0.0016060026368301657
1420 0.0026515343148455633 0.0034567774746543443 -0.0011724359202667629
1943 -0.006767782538730521 -0.004209112782503773 0.006239905047291446
1425 -0.01787600455857287 -0.0025899283814531477 0.023709636550844362
871 -0.00636322100536724 -0.0029228606519809516 0.003613799358157377
2281 0.002047259317877482 -0.00010900856802921885 0.0021722733331358897
1785 -0.005694652831089542 -0.008196771308033752 -0.002106869118283816
269 -0.005112605413396546 -0.010130020062781988 -0.002479828160431778
167 0.01054245230069278 -0.013209625936303395 -0.014110734420620202
885 -0.0022020570181988594 0.013256545821106285 -0.006974187560158859
120 -0.005523672916976839 0.0088214870473361 0.007716926092640197
2233 0.001213918586927797 0.0004903202668410766 -0.0024013334410210737
1190 0.0017787247109305997 -0.003493868487960561 -0.014130274973767058
947 0.016918224717456284 0.012434408693454291 -0.011498903856958174
1527 -0.027566320550790464 -0.006030028145713603 0.0037317078840714848
1861 0.0028411949159485236 -0.008594927863035621 0.0023845581992320212
2078 0.002437268062443123 -0.013319370312863427 0.012593041506756584
2251 -0.0056554350667408805 -0.0005614473312838446 0.0017364828279570462
2396 0.007582445987334743 0.009565790088205135 0.00408743560115803
955 0.004493785983919514 -0.006221914161722211 0.0009459197777185046
583 -0.00512525057933866 0.0007751621400429706 -0.0025048175284706565
1238 -0.012329141402335826 -0.0012003991207185653 0.008172419296658231
1944 0.005006560384457832 0.008802058821887162 -3.591515270898661e-05
2089 0.0021969013127032763 0.0020160539105476987 -0.001160937919876958
592 -0.001664545046769567 0.007486392232973974 -0.0031591715648954513
861 -0.0008528884667952513 -0.00017306607500480427 0.005685561069619549
13 -0.0015216043130429765 -0.0033165289676377967 -0.0063219585920073025
2191 -0.00010240518646123056 0.0012893173172284895 -0.0020542536782945826
1531 0.002951390057745262 -0.0028629441192013594 0.0004567982522281033
2346 0.0018719250483255551 -0.0006807288042589667 -0.0028795092359301857
2330 -0.010449123108804647 0.009403429776360895 0.008213749389748039
859 0.00865156651336254 0.00017232051885547928 -0.0023247851890758663
134 0.006619388203736528 0.005839847346823003 0.021830359360738703
1842 0.01181597107111893 0.004774411001423848 -0.016593134359867458
796 0.002295104018946837 0.0011123694301584106 0.00010843157780714353
2192 -0.007854887971685222 0.0020351554652907585 0.010473450739494492
422 -0.004253577760961326 -0.004465233096098222 -0.004969874567473003
119 0.0010149837199341842 -0.0019061237558104338 0.004904517794550462
1525 -0.004034627898341823 -0.0006143941248837884 0.001374903347304013
135 0.0013188732692367873 -0.0029863309236403566 -0.02348558652731127
948 0.002844027229834299 -0.007520359838726323 0.00871572468935756
1195 -0.003074351083781826 -0.002263194252499345 -0.0016058153294534387
1255 0.005372366040617077 -0.004913533555120768 0.00293662207637763
133 0.0008273906904748719 0.0014101329068544946 -0.005362070205367852
1858 -0.00481410096064482 0.0013889538999359873 -0.0009412463190552966
1467 0.005865549767150471 0.012985164403789197 0.014781684922209567
2092 0.0035911679271981812 7.440771359969502e-05 0.0007412969194973455
728 0.012440535935692816 -0.0015921040977972356 0.02196706252392238
1129 0.0033356768782356406 0.0023764695363750654 0.002426070714270425
833 0.007887599751563194 -0.001718192034726803 -0.005635358571514337
2268 0.0035152473021253113 -0.003471207046467619 0.0031435101232218828
297 0.0016022351360846046 0.005232895470252729 0.0010559662534642617
424 0.0015007424544050084 0.0016828241106165759 -0.008455680034396255
1171 -0.001431767890080252 -0.0052985492733767636 0.0012515327213625832
1040 0.01527593670605817 -0.00440615314852571 -0.01273279974419741
658 0.001724247074672617 0.003255623661883665 0.004754251495491131
908 -0.006692586893591818 0.001965573364954618 0.015851035862094943
2266 0.002963318439344021 -0.002150900894310316 -0.0029617831157594462
1942 -0.001156265750299914 -0.0001301076435729958 -0.0001505980940169978
2278 -0.0006452182216983571 0.005115300775467395 -0.0008917052762397779
604 -0.0007590952510450293 0.001610262964046124 0.00158050904464679
573 -0.02145387886173587 -0.010298128173088093 -0.0015744823126197776
1555 0.0036816977674549345 -0.00757984963293059 -0.001275288374036262
1929 -0.0020342413471757946 0.02704871150828867 0.00013616832517839472
605 -0.009509358875575507 0.005777751925133526 0.005597903967853191
878 0.0081616422215267 -0.01364430525389992 -0.008721379415989688
832 0.007915716557483557 -0.0015593131343207656 -0.0017011832362695421
279 -0.006979248559630418 0.009048642795949456 -0.015060529622293348
2252 -0.006415207949363673 0.01598189362379988 0.003848603896626184
1278 -0.018645897712286898 -0.005504828163014034 -0.007840918540245202
797 -0.008031239495435648 -0.01166891453559499 0.005948471359204804
1025 -0.007434709486436216 0.01667417226631431 -0.014722208357243704
2093 0.0032282812366188672 -0.009296994946396464 -0.0129196426380494
1466 0.0037652817136364304 0.017858646187120235 0.026582796478178784
1738 0.003573192354685073 -0.008955339246807841 -0.004451832903713834
1487 0.02183798738003935 0.014495940063532971 0.01775683386682318
1860 -0.005807376221679524 0.014645029707261172 -0.015239930070372646
414 0.01017922196927114 0.008003698301956333 0.01627515568387857
1026 -0.019304651592377906 -0.003333848608842909 -0.0030950538948864435
1742 0.02408048203713382 -0.01803761444369462 0.011279773245984656
1131 0.017699936290292557 -0.00767754713710418 0.0009668786139190701
2334 0.00043318626312075273 0.0012620136148682344 0.003986322920467719
1626 -0.0075770601687371215 -0.011912923205676825 0.0015899083693660322
572 -0.013172931975228468 -0.014284276531541492 0.008348724341841064
2010 0.0029009378280192553 -0.0008747041722315605 1.9465570302231263e-05
1172 0.004367271728429937 0.004739076626084776 0.0016903867692761594
594 -0.011712763961275728 -0.007220468822245399 -0.009519534797837645
1624 0.005121777065401364 0.0014136373191194406 0.0029834830604025765
1422 0.008245265932871415 -0.006960463935803093 0.002364906171289829
957 0.005870158949006206 -0.02131622573178877 -0.006004461065596772
1798 -0.0009841177857196637 -0.007742297015123232 0.0024656858832753452
944 0.0072357435988967735 0.010252644328954981 0.002068795590046276
465 -0.0042372374870865955 -0.0022975879489244436 0.008000151916020042
1740 -0.002856984928333937 0.015041798020500536 -0.004939289440853521
2172 -0.0038647256782323638 -0.006717794285362221 0.006880390656619289
475 0.004623443162347038 8.921662159568882e-05 0.001959744318398758
1196 0.009706728707952287 -0.010284863994684366 0.023478952012804897
565 0.0017331715333902204 0.0006468230132240162 0.0013534581942573043
146 -0.029247242759491424 -0.036657957621672815 0.006923652324561959
593 0.0011625210699969988 0.0036134543867131596 0.005940392495077172
69 -0.005513374320382867 0.010093879581758293 0.014966864222019793
834 0.00811567821805256 0.0032139876743472917 0.015858296467028018
1884 0.008850336120370436 0.009181144863379185 0.013542731940354632
153 -0.0033747969910062816 0.01913894160982949 0.0025673565036311956
426 -0.008456612183508547 0.012968618117756257 -0.024796834362020313
1191 -0.008054205564026189 -0.0011624151282598506 0.0025082852672682235
2283 0.0015262673190724926 0.00037729477970077483 0.0018288103094124025
907 -0.0004131250830938513 -0.0012446328059989341 0.0007562601058060758
1739 -0.015791103134896994 -0.012157386491904051 -0.001969514268895359
1244 0.015875126514547606 0.016882749571310703 0.00130773568981803
79 -0.0024398433978590622 0.0053304253091153745 0.004474426283927724
2091 0.0146498969155612 -0.003930382536052894 -0.0034841278173606844
1257 -0.008129921354366874 -0.005275874911970663 -0.008077282879695481
2090 0.0007532799530575638 0.0026448320312950817 -0.00991792761883461
1651 -0.005567538976099939 -0.0027034636253776196 0.0035190558462698976
1243 -0.0033096228449560204 0.002287403644536429 0.0005069263488748507
88 -0.0032359610854769136 -0.002774962005372985 0.0034465023652766125
727 -0.0018332010944719914 -0.008996304549786383 0.00635501039864831
1648 0.0036971929420984684 -0.0030417454438592516 -0.003417383104535202
1708 -0.0017166945848304915 0.00456400104746617 -0.007397404503353924
541 0.0016811291203513554 0.0038796218417752716 0.0027680149193037226
118 -0.0028811407391899926 0.00408738251665513 0.007058794804478685
1456 0.0034184568464646387 0.0019899880774971856 0.0005548789554117927
2193 -0.0030411417914702385 0.010263699847693231 -0.001720435171217564
1281 -0.016414999621567738 -0.021187885114862415 0.004903312573709741
606 0.001633394789172981 0.0023887069258800237 -4.713428400519564e-06
931 -0.002799061675437211 -0.00971945730433089 -0.001257346207779073
1625 0.010063548462847679 -0.015078475635881342 -0.012232847723366958
1532 0.00830797432691097 0.009398134732719632 0.01820954386467473
946 0.001921712246270309 -0.0032309000460318477 0.0006224927621345061
2094 0.007933703442187709 -0.007280881879162482 0.016555388832227486
477 -0.00901007234731486 -0.005390210838043372 -0.009970024984256424
1465 -0.001836454577665641 -0.003420851860708526 0.004179979804709211
1927 0.00011245110348812475 0.005478788431969299 -0.005511140666277212
277 0.002884089563269663 -0.0013669802124408837 -0.004029459409455924
1173 -0.00022773294330505033 0.005160480486554666 0.02359501235558251
2395 -0.00539209754086761 -0.0036417045341117344 -0.00222396225530666
2397 0.0056825612387719215 0.022955963827806902 0.005658682690872922
463 -0.00031438867991918473 0.0005145270984327993 -0.0005961213529152202
1481 0.0023125281783988793 0.0077850495181595114 -0.0018028743184417585
1291 0.00035788249824289146 0.000791729323104759 0.0049995868838736265
1799 -0.002770171365640515 0.003316371873496886 -0.0077474099325731995
1783 -0.0007217754842625778 0.0018214080573903016 -0.0034705461569246444
660 0.014359816093277166 -0.010489691022442118 0.013120928695267285
1928 0.0057475826447767105 -0.03398175848577668 -0.015302279173177542
1782 0.000988543459512804 -0.018517730531068893 0.015984638820671398
1780 -0.003278058010094702 0.0008364540847417997 0.0065981689062895215
1292 -0.01696316254505575 -0.01032916446441949 -0.002504354267199894
415 0.0008424759788411583 0.0001507112174235522 0.0015204491263423848
659 0.005757816200199538 -0.017588343728439367 0.0047260451115778875
596 -0.0007281879817329157 0.006179396435167967 -0.008701909308819136
1459 -0.00989112963655123 0.0026978124421181316 -0.00048495718065171727
688 0.0021206119993385075 0.0005369981837710285 -0.004181420766499371
1480 -0.0013076233689790614 0.00020100553696867854 -0.0015767556764463583
1953 -0.0007052359126321799 -0.00573363626139739 -0.025777589703075667
408 -0.006940374891600551 0.011521550004552189 0.0037827057942357687
182 -0.014762504366775132 0.00786650570719927 0.00527080717727485
1132 0.0021201732052183136 -0.0024453252316854433 0.0015460662919094832
1461 -0.018552873532090487 0.007989900017791486 -0.023282027390581318
597 -3.608687494215419e-05 0.004721652282759478 0.0002719879080528296
2183 0.01326499748122242 0.004362653554573085 0.00033116294584780847
194 0.005220731325668333 -0.0027428454005725255 -0.0075258210963195914
233 -0.0037862803499515434 -0.006648696392226569 0.001553034464337799
1269 -0.002131682775588872 0.0019600764391438214 0.0014610798085528162
825 -0.005660943282223245 0.02298930020845037 -0.008411007538371434
2106 -0.006291435844815847 -0.0048692999582509045 0.0068004198875867205
1356 -0.010086198583275568 -0.006871610316034655 0.011433865463480743
1926 -0.016766423709723952 -0.013712255708552657 -0.00577423810192413
1925 -0.0007788661526831621 -0.013177536272720032 0.024768896175543453
1606 -0.009142622925158246 -0.0008012539975147855 0.0012921572844558835
176 0.006668717960950849 -0.0008480128658806383 0.0021327165805286948
1304 -0.0011474531531239106 -0.003182378661203216 0.0014132402960230833
1104 0.02456545888389378 0.008043654565612806 -0.013316333044769438
1662 -0.008542067822444977 0.0015706439871893865 0.006376272396529997
283 0.003333974519492487 0.008081718462692155 0.004715925929020651
1103 -0.002678353440847249 0.0016733267802626572 0.010532859624391145
1734 -0.012062836534272904 0.004445083239693255 0.0010498019805642248
919 -0.0056075941012868336 -0.002246424829539313 -0.007074438821428955
2112 0.006955594948721044 0.008614732398433057 -0.0026794003114911837
721 -0.0010244857228783172 0.0008423253625144648 0.007193720988141427
904 -0.0008068101252716445 0.0010285011781415786 -0.004990102498493565
1669 -0.003094856254463968 0.010781878549358505 -0.001032921349652453
455 0.006307055152780917 -0.02903190470087455 -0.00393352077248494
1133 0.01276076169895816 -0.02036682020888115 -0.0005117234440825982
1068 -0.01081699714381858 -0.00033872285713634857 -0.0066068666796475365
1571 0.008182033594378012 0.0015585954690081588 -0.011921876388943663
2133 -0.004929499760734894 0.007389098239056118 0.01376251196184339
1637 0.008356396148863543 -0.010340797109642707 2.0235324886254508e-05
1761 -0.007905175082003231 0.002735391268134488 -0.00016009385452620122
443 0.016204339622844056 0.01488753907803365 -0.006204956775844976
348 -0.011221784156300879 0.014760820448438202 -0.005974683897004184
2110 -0.0010236469628911473 0.0037338578543278196 -0.0010480199417736984
1824 -0.009371908918879023 -0.020425811931038772 0.027548701815004666
731 0.008986760491296564 0.015243371736025293 -0.008933472293469717
1014 -0.026384993546104876 0.011492038859465894 0.014880285173957926
313 0.0028837343378901197 -0.001820537428488183 -0.0054249946118057535
315 -0.00791573399402475 -0.013898026811261831 -0.0010652188720330028
979 -0.006816200615803053 0.004842255250815508 -0.0016841754204912531
2229 -0.025166172620196964 0.003962140498873283 -0.010224048404906094
998 0.012886866094578257 0.01777639108095503 0.010176086771430115
1334 -0.003825316331025708 0.0017152592696900559 -0.016939655730209256
1200 0.019431196121032425 0.006121204242365134 -0.03911775276111067
804 -0.01415685634332375 0.00046590683218713266 0.01198580468688262
222 0.013645660066142333 0.0015397855985595657 0.0036205552063412246
389 0.008709274866641853 0.01176841355709266 -0.0013806153552025943
5 0.004220284394238894 0.0021491334385628437 -0.012972868442233755
2326 0.0011133146205142663 -0.0021723972196673 -0.001385369156878408
330 -0.004240162215720021 -0.005733723823494092 0.0030988291914323287
442 -0.0020615710165733875 -0.0016983610723999506 -0.0014939078029747256
752 0.026811989395963676 0.012812529170559616 -0.010210201199594112
285 -0.017554459384807524 -0.01702137832757161 -0.013658288591007726
481 -0.001012248536803442 -0.0026678484663987126 -0.0024153171097330813
723 -0.02121217123767713 0.0004596440982402691 0.015476632283539366
2384 -0.0037847741508995115 0.015126265740803902 -0.008757053152660605
1758 0.003272067312359481 -0.005540600262721983 0.025767327379056848
1199 -0.006790052556717882 0.0005181710306283951 0.013223578356114997
1837 -0.0027347425854343916 0.0037634239618467725 -0.0014886522335624144
753 0.005111272111049996 -0.009858672274111633 -0.014330816659916205
2095 0.00030900438378032294 -0.0025354175785863397 -0.0030779569540668127
1476 0.008228140122926378 -0.007483274556747827 0.0023707320119484778
528 -0.007467085343144807 0.024945756211962794 0.007175484743840817
552 0.01870483255370641 -0.0031808762961026606 0.014892119876779894
906 0.011191715573968858 0.006423318506225952 0.0007526033418826816
1514 0.012269763275771627 -0.0017596176136488752 -0.008482026474387243
1069 0.0004302549129302261 -8.149487435399219e-05 0.0002518349785004519
2198 -0.011261840122550314 8.007533475425246e-05 0.01754372252315558
2005 0.0011621665783039085 -0.005777419654613127 -0.004223678314737556
2227 0.0010154232077959895 0.00216621667421973 -0.004598071117124185
140 -0.0031470712615190716 0.01249672297671835 0.006484276320487624
780 0.001885242135824549 -0.011750567512622581 -0.002386404289207
232 0.0035043455552796563 0.0014556789652111464 0.0009784614415866359
1302 0.0035641813951882728 -0.007966838252697284 -0.0032799862260709163
550 0.007553603180468096 -0.0015477269350836073 -0.000692084643521462
342 -0.005647231477397741 0.009063495430147764 0.011530098064708885
1825 0.0014132662366713863 0.0009192292697725246 0.000610199264050828
1605 0.01167486876936267 0.01000727659203909 0.003087063037531127
1267 -0.0037725532984100017 0.0017287812882952204 0.006321426598665234
220 -0.006269168268948132 0.005818700886204793 -0.004959808632136507
494 5.6000229444065715e-05 -0.010391678269497955 0.007918155528431605
221 0.013851960534617144 0.0066731319425860774 0.023025161915120593
526 -0.0021214706419474547 0.004072918803278156 -0.0022154973702650294
2360 -0.004759160938773875 0.003211899328460882 -0.0025441881274369206
1268 0.004011109224120647 0.010946240950505687 -0.004726547833771804
1563 -0.0059436708221000546 0.007675521204824945 -0.003945120999444886
2359 -0.003695809689292423 -0.00024038361676662558 0.005588728178370235
905 -0.006979139632084467 0.015135018079237145 0.00879659744063225
779 0.014356639844579834 -0.0009511555516982974 0.0003441045407598086
1333 0.001847108600345687 -0.002505073996451408 -0.003781833552662808
141 0.0036763333056089023 0.006760541280818666 0.004364123382219453
292 0.004244631466068731 -0.004275173836877799 -0.0020611322924799754
1570 -0.0009201284570152809 -0.0013678738866598063 0.0055907349653911325
340 0.0031827381752046074 0.0018429188039993097 -0.0025827798498449274
1608 -0.002836620669403793 -0.0034952911546573488 0.0059908579709417355
4 0.0024065920295172627 0.0007959012605270063 -0.000702271518006716
1838 -0.02722154200189338 -0.011957379542485226 -0.0060468449683137
1924 -0.005830186348669971 -0.007141790625560123 -0.0016321088830265709
328 0.005411761500139071 0.0049923580296872255 -1.3997809107948857e-05
1827 -0.007391669975555045 0.014176843407249106 0.004631530934276093
1695 -0.010921080126621187 0.0006188092800266836 0.029256950141805724
747 0.017013450704932653 -0.0038912115595484548 0.002408945360344859
2184 0.03688316231749388 -0.012775628146243825 -0.010429775791642476
117 -0.011600575077964456 0.004429510181194709 0.0058069002983554335
628 0.0033386571756578434 0.005746756507519105 -0.004958205482192698
1661 -0.008723756369920788 0.0279674168461376 -0.011725565740529109
1305 -0.002181738313716065 0.007696156508623983 -0.0012430963158904078
314 -0.007623270398800862 -0.004618643122101312 -0.010357980177235108
346 -0.004527754531087221 0.0008867885931791718 0.002974170620063035
1638 0.0018146175830252482 -0.002528248724024001 0.004378333179585428
284 -0.022530731549963805 0.0006850471388881505 0.021058853820002377
778 0.0008351488509679906 -0.002947562956761725 0.0029186797626360498
823 0.0011340476887696275 -0.003264511890660895 0.006734848591851141
223 0.0006504570777146807 -0.005367267212943819 -0.005332471139956729
2327 -0.009689157735495451 0.011460619681369192 0.00782821434951449
191 -0.0010856833814212356 -0.010414214595571973 -0.0036442251877978316
551 -0.011213802892412627 -0.010473547250119768 0.004765407252463863
845 0.0069044292460800506 -0.002837906456099891 0.007418663764475769
190 0.002884126959430238 0.0014329686227892119 -0.0023177057546730235
879 0.012711679913279955 -0.0009016377455843186 0.012811222571125826
99 0.0037599431930092726 0.007822387425231545 0.010979118277369714
334 -0.002655496524899136 -0.005924047409565474 -0.001710245242321037
1354 -0.0033555539217636587 0.0005512103069417135 -0.0047234258758797245
2288 0.029724814412835133 -0.004132364252330538 0.0079214375620503
1300 -0.0014707842950027403 -0.001073493117430646 -0.0006207234849552927
2148 -0.0071284472531041665 0.012644897480984272 -0.01074579029514533
2197 -0.0008674412597938204 0.0028372799079874763 -0.0007792464485722738
1963 0.00037827605139133854 0.0028824586843552006 0.000433734792984675
193 -0.00981851325332448 0.005419201901163581 -0.005113774284795026
388 0.0007410944604387441 -0.001972480505726835 -0.00158455443460289
2341 -0.003321877604581867 0.0030096964497966657 0.0009447972042180814
483 -0.020088271738357446 -0.026683952486034772 -0.01704526863392394
2385 -0.00348381245343233 -0.013407672250095651 0.0029036619478106625
520 -0.0046802655168160885 0.0018241179692367899 0.0022051627394016906
1198 -0.0008031608072302357 0.0019569452792002943 -0.0027455881589371124
630 -0.000642256724775897 0.008566648553818352 -0.0038170110431378175
744 0.011151695896895271 -0.006063174459134013 0.010261906950259298
1301 -0.014977361901978563 0.011968035207437189 -0.002080033730543043
527 -0.007112044801695554 -0.007231470683843376 -0.0033638438309261196
991 0.0003926686831561308 0.001399091315494839 0.0012141884157307412
889 0.0004224565063358063 -0.00019663326613421394 -0.0110809695903469
730 -0.0009355304417595429 0.0010335939577057818 -0.005689149207462046
2386 0.0033506365680338102 0.0023326037703895763 -0.0005623416637773941
1607 -0.015580689365731006 0.0027804912417006894 0.006336583445588556
1335 0.011276930820710365 0.009252522946700847 -0.006393485815695714
1143 0.008125439874407772 -0.010624750170474768 -0.007787644122232036
2131 -0.0015767157282454286 0.0018506382214488882 0.008277097925203307
1870 -0.0069710148692558455 -0.0028731358443261044 0.0056502054679255205
454 -0.0020354361425864403 -0.0007243445271915537 -0.0036436062427616903
1102 0.007822268900107003 0.0022856351222097734 0.00267290536494439
1822 0.004495053169486668 0.00026902210835773896 0.0012235117263887446
1671 -0.003544980296637184 -0.007837075413487615 -0.019260084511993947
225 -0.01465208879592889 -0.010485380207973304 0.018468814438335646
1757 -0.001194112835849615 0.004237025563225995 -0.02089807411244688
293 0.001176899726231836 -0.006570846422785779 3.9351731133835864e-05
1066 0.004964841447439229 0.0024423761183283263 -0.0017803266088434072
522 -0.019158403614901138 -0.0070668495897765 -0.011281815486937533
390 -0.0004751244619412237 -0.001249889356506785 -0.008087436226300216
175 0.0024990200496388055 -0.0013414806962891255 -0.0034650509577156046
746 0.0049012834796493005 -0.008984686662349023 -0.009364952763708627
1603 -0.005512074037211277 -0.0001506853057900523 0.0031630399227319957
2276 -0.00410101754324929 -0.0030443119982454586 0.03992042408438467
543 0.007523951729745037 0.008712582699510762 -0.004807287503864514
2151 0.0194289602967674 -0.0001470619019373744 0.0003098916711233006
1245 -0.024163901388501125 -0.01310105027834993 -0.0007381927944326825
97 0.00499107996664107 0.0006289199744614931 0.00019590377502518954
1303 0.0016697010909482754 0.002059440683944821 0.0033615967328676924
1871 -0.002222589191690365 -0.005504993452746401 0.0029805853829781496
2147 -0.005941128568247782 -0.001410579697195996 0.0023222930815828204
1756 0.0011819553580624295 -0.0005020888674504792 0.0012952247120635533
6 0.012978907347577548 0.003765188181268818 0.003969745365132137
162 0.00816224727918305 -0.009092802738311997 0.018919075504400657
458 -0.0006071011915487996 -0.011455709785121664 0.01949899829982926
1478 0.01394759739472319 0.0005692155452720317 0.005584783211691671
2105 -0.00011443859025084122 -0.009445376882905306 0.003705030090319956
1474 0.004078300002165853 -0.0024864789575722228 0.0026447960760316775
341 -0.0025064251994707607 -0.017780234624125382 0.001467928838413972
538 0.004104004700358448 0.000857872757538787 0.011473033414304229
2104 -0.0020738804167161973 -0.0028619506901140608 0.0002292962172623904
115 0.0049046795250209056 0.0005558468324017509 0.00013785231696797687
1427 0.006869712835248242 0.0015881666561311997 0.002039145521552
890 -0.01990775109220091 0.00043665030198914703 0.025880744899424272
1561 0.008148602468784901 0.006095346447475725 -0.002913865665850304
216 0.0016366601689763813 0.012059299040336958 0.009344902299558002
1515 -0.006720792925817491 -0.02389519544276355 -0.008786502027326358
2241 0.0193727340270944 0.006452359075458905 0.014393003757233454
1660 0.0014211305278669293 -0.00159545701501527 0.0027809345516276837
1636 -0.0018732200908450943 -0.0026046649066641496 -0.0014243264283892569
2240 0.015736777251152946 -0.018551841839575835 -0.012595689995690598
622 -0.005531941063444399 6.127162620815002e-05 -0.00862671323017724
2383 0.004891259972283043 -0.000554148783874043 0.0003620130599959593
2316 -0.005703097865373587 -0.002091701837841877 0.003947298281033371
456 -0.002484162670923614 0.009692921911463398 -0.02011273107600342
2239 0.0006529112535533565 0.003698560019161817 -0.0016966367895148511
2388 -0.010178626365584293 0.0036573260418458968 -0.0028541286288109955
2275 -0.0006281810840335112 -0.0039808859142748 0.005639489216834562
1475 -0.014700504061930427 -0.021994069192507064 -0.03301297987238054
506 -0.000295656406668064 0.0014286167394094804 -0.0011163653104227463
2052 0.0002465476482608605 0.0034890718547734125 -0.007889227051212856
1670 0.0032803473471848966 -0.012513923641549969 -0.006718420606828312
1288 -0.0045330066659869436 -0.0015313915544057399 0.00014388763228430002
2287 0.0028576410162709305 0.00010488719133276701 -0.01041286240739717
624 0.01830135338845092 0.013609833899594801 -0.01026841340818915
2132 0.010328689441938946 0.024208847772063124 -0.0013458153779534255
2050 -0.007148039091651978 -0.002450331297990835 0.002036898827864884
689 -0.0034747878009415926 -0.007539497102767654 -0.003048827609250304
219 0.005070329084429612 0.002286868926771743 0.018084526419873313
177 -0.010371439152349695 0.0013481799729939202 0.0009730170942933017
444 0.010067344195906904 0.014363757413687131 0.013115648561527053
1760 -0.003122847739926155 0.0036985841541103933 -0.0010765501155510797
743 0.01202530857884748 -0.003454582205371853 0.00018616159552354184
824 0.010079363491463803 -0.02687021948597774 -0.014368768000024028
1859 0.008041592568033542 -0.007938391033727635 0.005455634801573745
803 0.004217160748866658 0.006886486744056641 -0.0023356462431375173
224 -0.0036262257515331333 -0.010661045606532924 0.0016915946486868985
1964 0.005828826654449659 0.030901230728113835 -0.013960689387645449
2163 0.0020327817104421365 -0.0040648111202797035 -0.021298398310178466
1142 0.011528758579947423 0.012349402163580096 -0.010004783108748848
2387 0.0011667406432591817 0.0010637939809267352 -0.003056158653895382
921 0.0036989799147071813 -0.007887509409710967 0.009348967482167467
1839 -0.002169252551942006 0.03272017366377959 0.008447114723938689
1604 0.003136161163038137 0.00766318569494066 0.01946002737141838
505 0.0005830072183848835 -0.004583617214672686 -0.0030116577425102838
920 -0.006031096526320733 0.016508956263358743 -0.007426375423244229
877 0.0026616717327509827 -0.0013558813974104075 0.00017555280762281386
2361 -0.006404386540191903 0.0034170615969363605 0.010661008881037878
999 -0.033730756482460655 -0.020069724619354967 0.008957086549458123
2342 -0.0012081262814155238 -0.0005655475489210371 0.0031669742467455926
1428 0.006479471385988501 0.018692824059792976 0.0033002695953793493
217 -0.0005822531879872205 -0.0005681223529616458 0.00629027960776618
2097 0.019218577188609177 -0.00243362157543 0.012797943954533786
329 0.016328224491389896 0.009775463453420275 -0.013273249311805154
2161 -0.003990188738948968 0.002414925412786937 0.001297021555616403
98 0.01849649959344504 0.002236580241876417 0.004732532436207282
482 0.006390835029266244 0.02565361114034407 0.0030551420361093233
722 0.004312612235522771 -0.020475662522802793 0.005486886870322081
116 0.0032624490908684366 -0.02050142400660883 0.004556423301586367
540 -0.003923634428542997 0.0028711967144467326 0.017548561165042883
992 0.0025224740183029284 -0.00565674329664194 0.001074439167585111
1477 0.0019178648495142014 -0.0008589450625851737 0.0013275228971266634
1289 0.00700063086182094 0.00015350904829933485 -0.00648301472465753
1012 5.592075350668876e-05 -0.00605881079742104 0.008098927451893967
2149 -0.0031169215691396967 0.003130164135967936 0.006723990749341601
347 0.010919557969808959 -0.0020115761816671906 -0.0034930095748951086
1479 0.005538520853900164 -0.005547617469067937 -0.009053074165489196
802 -0.0022018910988541897 0.003615064665859068 0.004909374388257103
215 -0.014805358179466814 -0.0017585081949858083 -0.011590133969321051
1141 -0.008759097091695471 0.0018709074132051845 -0.0006859407729064195
751 -0.004514659404216397 0.00030123050535968995 -0.0026648673629888027
161 -0.009132693171076454 0.017563524064368063 -0.019085775413603876
2228 -0.0035674657383249044 -0.014468573107496897 0.011996700761812024
997 0.006355964311477226 0.004378141988530946 0.0061119471087463335
844 0.0004253498995263353 -0.00149859220998834 -0.005859495855951187
2343 -0.005580599275119535 0.0030223236208500354 0.007896710219388163
2203 0.00011228089419181036 0.0020038388548244573 -0.00482436504793518
493 0.0023898080305134878 0.0004074603910296483 0.0014028554469733131
742 0.006950491615012724 -0.0018203718922208214 0.001990501844114848
2096 0.01489672738363555 -0.019824980285055905 -0.002369037333880387
218 -0.0010637220300847424 -0.014139907716460511 -0.006719104891555259
2051 0.008810229114258742 0.0017385628227385523 -0.013302127314864895
2328 0.010612591349064636 0.0011302570322568183 0.009834314029921225
139 0.0053295964279281485 0.002406767645714038 0.0034471273192394126
1293 0.009918836345304103 0.0051651254737042525 -0.010815288390424926
1070 -0.016303146165590445 0.008405662168875566 -0.016928098209567068
2146 -0.0067430724134575236 -0.0032578338848515236 -0.00209513759925281
2214 0.018207209813316694 -0.010756191616236416 -0.00016017969617707433
1759 -0.0002699959755443845 0.0028114945120279065 -0.0008814166046110715
623 -0.015156288213469434 -0.017428921186279533 -0.00576188955890095
192 -0.005217015514125197 0.010523171361388941 -0.021289119646246687
2289 0.003305219538633294 -0.0008915148929584489 -0.010429334333756079
745 0.000768383193853414 -0.0012528171338270365 0.0012367690960328828
1037 0.004489626905371259 0.005707838598001389 -0.0007008528700278039
214 0.002158340000341301 -0.00463033443678962 0.001407240380332566
846 0.0006261332157182254 0.009655757752154395 -0.010587093437541918
294 0.0040145766305880225 0.0008321129382085628 -0.0028641014074473085
1426 0.004479014253247166 -0.0002455310054056125 0.005728434248829484
2199 -0.0006539296341402129 -0.011670431779212372 0.008904304007885897
495 0.015056068539638368 -0.005365324981129349 -0.01924738798802479
2277 0.006635997595524054 -0.02319750484549583 0.004140507226912895
459 -0.022791638007028246 0.011591019170908367 -0.011211776422773606
2150 0.026895588067636016 -0.0029964902591045786 -0.004594471757755871
457 -0.0022893264780792996 -0.002498757517597542 0.0036947683378064275
336 0.00019256056501026819 -0.0069433985526341745 -0.010718252515140542
160 -0.0011761988403086784 0.0050325593336092295 0.0009265383194416553
2182 -0.0023662866304260087 -0.002211377048519446 9.851064674661242e-05
521 0.009357836197097612 -0.009627915812346271 0.013052501187791667
980 -0.005976963362813723 -0.00015684252176465636 -0.006778282714757135
2111 0.01655425354572015 0.0019652776799182555 0.016018171440570043
1071 0.007784411252048485 -0.004765863483745467 0.009617172611120913
1513 0.0006733258688937586 -0.0019505373639369023 -0.0007480092756434458
1693 0.00506063647873945 0.0005629775171375318 0.0005714465440447395
2204 -0.012494310554270588 0.012507519924542868 0.01810984997666638
1965 0.010951123608695072 0.009719643041189299 0.013244151243410473
1826 -0.004851922209623187 0.0028687132627277755 0.00766933043293356
1823 0.011656867313381291 -0.02210020304894811 -0.006440957180410108
335 0.004730583521036179 -0.008174341113286875 -0.006409262113114451
981 -0.018497850042156108 0.007227495518313408 0.0075404526270958045
2006 0.0024863616464982606 -0.0017302460616146027 0.007567991734220124
1872 -0.009037058600570153 -0.005570607511577347 0.01069468936288115
301 -0.0008122871601589969 0.005970791467008085 0.000736275830860876
1694 0.005956606111943938 -0.0005170338455140972 0.009553034485632632
1290 -0.010690917195710189 0.01971471709973373 -0.013520281822218795
1572 0.006867718545488734 0.002636158789737167 -0.01239495638776601
1700 0.00545992368436645 0.00957910543372248 0.01818219324598292
2205 -0.018053103522646947 0.030868356730723603 -0.014501574579572301
993 -0.006972869309590874 0.0014049752850399263 -0.0006481008930360376
690 -0.00323605540851972 0.004907248303652828 -0.010856557783311014
507 -0.02950204377744627 0.0017271630253381449 -0.023279745976488592
2236 -0.001313854095122198 -0.0006043821014583657 0.0017256849783626317
2238 0.006945023106533435 0.02345468194860293 -0.0008852964823654879
1416 -0.005286427624736888 0.010043264834242975 -0.004802105154319407
1390 0.004874900993238657 -0.0034676336864389785 -0.007941494339974535
801 0.007995542846116857 -0.02738619328719521 -0.018995168541793762
1795 0.00273845375057954 -0.007530701639019837 -0.004312991815690922
255 -0.002075081676223479 0.014604019511818764 0.0027188775653647916
1431 0.0007558953980299637 -0.0033907834087780874 0.0010570771806878451
101 0.018377194371628484 -0.011864243852338965 -0.02088965736068772
1034 0.0031838152024575473 0.0010450259417094942 0.005826210477358184
1554 0.011269474438900666 -0.002853199558192701 0.017817027542842156
1099 -0.001469467465404954 -0.004724603830777716 0.0016402795561948666
496 -0.0009068898930620172 0.00457484660278761 -0.0005084520466686138
822 0.013501072240070243 -0.016869321263245377 0.022803790700161353
1974 -0.03114721312096221 -0.008799500712747368 0.007124909065770429
1061 -0.00779498879340846 -0.009594469831057712 0.005089985740503569
143 0.0054696886439174275 -0.009154842709606963 0.001618334887995473
710 -0.029679125313035702 0.002269494088669712 -0.031729478791084995
1541 -0.0014228330823060672 0.00977661387814737 -0.009851525746157181
1370 -0.0017754248704151515 0.006408436884793096 0.003480166057549235
1973 0.01813505914675853 0.007529157516929484 0.006152214544435977
2339 0.01229899894172921 0.004323060485054044 0.010556169721909944
2141 0.023593432903873068 0.027944364363129602 0.014596592509688892
1938 0.0008160738530623693 -0.0035517633266817176 -0.002184772201394179
1552 0.0018274476174099479 -4.956084096942922e-05 0.0017197955621029307
2039 -0.009961523224061842 0.011095157565386659 2.7387347899998175e-05
1697 0.015475978226787007 0.004381619744000448 -0.014844917170101564
806 0.00192684351592416 0.0025220613501889546 0.0031833264398363195
144 0.0010878316883053568 -0.02030875291209441 -0.012919340282098509
1383 0.009176077661116364 -0.014027436517891874 0.007476407845201887
154 -0.0020637847773032412 -0.0006177335168255439 0.0005596781470140642
253 -0.0018979760732031668 -0.0007416622082680773 0.004575602983377295
1868 0.021458134977150274 0.0006331303307942014 -0.014190158523446843
10 0.003429654891127054 0.0064745340970324425 -0.008182962599550947
1101 -0.004481874745729717 -0.0015618311352120155 0.011462114651529631
2347 -0.004800200213912103 3.246050565143494e-05 -0.0019111331267979488
2027 -0.008338599102440367 -0.006002641308380594 0.010770149053504069
1439 -0.008494375444587985 -0.004080892979507748 0.0025255335236569073
1623 -0.009538609342692171 0.00374201249606088 0.004015391519194098
1715 -0.0161697461379134 -9.2801250231208e-05 0.02068284852520061
1867 0.0017342860725977393 -0.0034870636087675835 -0.006585637725333699
1432 0.0002846935501314404 0.0010565936030626866 0.0024845903487597256
1820 -0.005320358161753306 -0.021843198913809193 -0.015606691901155247
915 -0.011337095071399649 0.013850755022822774 -0.007325369500267326
967 -0.002248978642107654 -0.00014333720175855875 -0.0037274056819752116
270 0.0008264610076431545 -0.001043776888693196 0.003753789721856423
1523 -0.013703296920027325 0.012995285558101605 -0.008705744740941247
1936 0.0022328346751579148 -0.003963020275303291 0.002004028996622237
1371 -0.002715300320065144 -0.0006942002328962272 -0.0039477774666462065
492 0.004744383530660159 0.009403712450248139 0.009772863405786206
684 -0.018970025655464396 0.005619290960492701 0.006800940467509448
491 0.004399974104065034 -0.00028729897118672036 0.005193914540668448
1100 -0.007656217028421819 0.001633560697200692 -0.0003752063174090869
502 0.0016534464676091283 -0.005008323318696892 0.0046125481457916255
1716 0.003375446379647569 -0.008587844099998052 0.003634828258897332
1031 -0.004473028499240954 -0.016932219638208734 -0.019395880432679317
1162 -0.003865141515959698 0.004723085190856607 -0.008431873697287462
2142 -0.0074212219590445655 -0.010233492663775478 -0.016446788858725532
1972 0.002713963030369287 0.0013738110317675042 0.003068355531600592
1096 -0.008398895804847262 -0.005223797521870081 0.0008257562295101317
1134 -0.005003634970356366 0.012680277460543182 0.018043867836906615
1438 -0.0013220942617880483 0.001083138570972508 0.0004873868802138318
289 -0.005241949026640049 -0.0004728877640796834 0.0008026885234646561
1440 0.0034789296805461337 0.004472342987148107 -0.0008691147117521485
268 -0.004451265775279023 -0.005103430375624698 0.00018993804977079326
2194 0.005138091885583146 -0.0004508901269765202 -0.002850271615247941
914 -0.0020147345163259622 0.009236416366803606 -0.008476835150068966
1380 -0.004267375205090385 -0.0022464271624658767 0.006315612883373781
196 0.0014285543499767122 -0.0010506980776026466 0.0008970470571206239
1587 -0.027745357364013866 0.0069088025809924914 0.009589972415260767
1158 0.007401706013024806 -0.004478853533852393 -0.01740166364402186
1696 0.0004171430186677928 -0.0012261164871707525 -0.008593913142092749
490 0.005536320547019029 0.002396838192974305 0.005908795805801071
1382 0.00045352763241990324 0.004412582213403488 0.008929792883774828
1445 0.01297058401345802 0.011072707560461035 0.0029449906812394817
1542 0.014998483289267063 0.008655593789848709 0.018935000265226775
102 -0.028672135146573248 -0.004340762302944038 -0.0042647069387075735
1032 -0.00243053006987883 -0.0008805284655230445 -0.0028163142577948912
1610 0.016084995211306557 -0.01176439686769028 0.016468434865716697
2301 -0.004163933492525771 0.0003924213528282859 0.003526104297152749
11 0.009127774386573449 -0.012029825900728534 -0.008610412863539627
1378 0.005745118424956955 0.000847200901626654 0.0046473090438907145
1509 -0.007638645166961799 0.001932079288176763 0.007538658912052573
800 -0.01584904474193581 0.001169932770957744 0.010464118510501772
1522 -0.004415473379699168 0.004621506063790097 -0.00220661591907352
1676 0.023615465734235522 0.002910175847494412 -0.0073326452830672975
816 -0.004238318035085254 0.007099760919445994 -0.012926891428822964
2195 -0.0013390350782084323 0.024008447672227807 -0.0035739460538599097
2237 -0.017312707308503816 -0.008261990793141995 0.008126581978609864
497 -0.02307373463757195 0.0064138417254134186 0.007908104308987104
2399 0.005510977249517848 -0.011347116891885544 0.008395669757688965
884 0.010927286974981647 0.007609562180103671 -0.004674082878780842
1216 0.0036542300359090544 0.0034742505535069303 -0.0013681811811844028
679 0.0011033306274888298 -0.0006606362852518324 0.002335169118032844
2155 0.006337668318220037 -0.002112908093516486 0.003614508547494203
1999 0.002706189899918977 0.0012069645512056797 -0.0006472958388871756
1528 0.00031314416587530113 0.0016762909106136903 0.0005318911469954326
2349 -0.01931888545887285 0.02077060158081124 0.015447400637747065
2046 -0.020553267372123776 0.014906640579558966 -0.007411600053074423
437 -0.016890270610888294 0.009433814658023683 0.014498915049866693
805 0.002483802566962113 -0.001362692470699054 0.00014316539047205403
1164 -0.036997522687801536 -0.008653195244841523 -0.0012426989487000436
373 -0.002441024529804111 0.0008923297186055841 -0.005853521968739998
1369 -0.0026340667066397333 0.0019123705893512905 -0.006019614808734774
2363 0.015266406844244873 -0.011565742600753702 0.006367401880080057
431 0.00426577440414529 0.004154194519554347 0.0006887375354744381
387 -0.0037600189444761552 -0.00574103352179593 -0.013245071822689277
2398 0.0059666642587239 -0.007595178206435302 0.002004395614371314
291 0.002183737868562431 0.014047145588800606 0.001342934590885071
683 -0.018531860334690328 0.0056173706940961686 0.011320805505027386
709 -0.0012193983465251953 -0.0006896090044562264 -0.005134352271210077
1714 0.004497613933492294 -0.00784617499164891 0.000520027677037332
1796 0.0004495572264546324 -0.005996387702621857 -0.011671851790005322
1400 0.020190305105287017 0.0014420128845055228 0.0001601633228955879
2040 -0.006922686938171668 -0.0018711702826558969 0.001989842991379039
799 -0.0017665835259456193 0.0027239067926403803 -0.0014111700387071577
504 -0.008755536673834323 0.0051590481666386415 -0.0005884892770145958
1287 0.01918618319868068 0.0033139637968821797 0.01872572825706416
578 0.0027763088199337874 0.011890592182412646 -0.01102901538509932
1381 0.00020184169893656335 -0.00679658269253006 0.002837017430475026
2003 0.0035725567874426356 0.023117927628127356 -0.00022220684812887805
1391 0.01589309941380259 0.0034538090419735878 -0.008904342407196708
1611 0.022528190429395398 0.01403526845047463 -0.003959938366073667
1622 -0.0066961317266767744 0.0026193601936510044 0.008641194275632669
1005 -0.008163362632192066 0.006909881300126883 0.014496498555214383
1352 -0.003999534809608202 0.012530144982235078 0.000501131840431415
184 -0.0035401989980110115 -0.0013946900349489754 0.0007761668680092595
1752 0.004502838191207099 -0.014995934153542645 0.005207534022847456
815 -0.014727301084028465 -0.0038397773066085016 0.011215509076608562
821 0.010010044516117622 -0.008071875362844774 0.026141059332436427
480 0.010858809403821586 -0.014128729419490445 0.013734937353526393
1218 -0.024948047170593915 0.004636021182790958 0.0015883745759504128
158 0.002721374024693879 -0.009403110452224061 0.010408088899656404
2045 0.014204664946577662 0.010302942856078827 0.0014565481466208674
986 0.005438395258191931 0.017637282555403467 0.0066503826379671485
1157 0.0028890569123051725 -0.01106322319248808 0.01034958476563695
179 0.007360804600435277 -0.007807073692852191 -0.003943014107417903
1937 -0.0006001382687936633 -0.003615269643300287 -0.0023546693777929464
254 -0.0044060319126100565 -0.005872838162404381 -0.007048828891519278
1595 -0.012508052736519228 -0.024129954782410604 -0.0025873103749871388
272 0.002346712691004779 0.0014050767588492219 0.0020621863184811335
1609 0.0077832530680498595 -0.0006550640465959693 0.002787607028539573
295 0.0004575530015132536 0.006272734934262267 0.004050160124402136
1392 0.006934562369069166 -0.008550237568312632 0.00574084559183233
290 -0.007487450768168212 0.000628416981216225 0.004655302714301439
1821 -0.022536469379568755 -0.015734299289441055 -0.002927592519116324
2140 -0.004253227201140049 -0.005530825676530884 0.004585669562338889
385 0.008127687465698405 -0.0018850475530732714 -0.002228675103367485
577 0.0024160147944567497 -2.454239637218355e-05 0.0029491643417533324
694 -0.001349080672458655 -0.0015314226252089956 -0.0011433864450006081
760 -0.004769186037226108 0.0010228186382460905 -0.0035620632198549726
1596 0.017999776218892285 -0.0016944417563619632 -0.023485664822056943
2044 -0.007985857978302034 0.0015815232484410544 0.002773509211363114
186 0.002085388436664179 -0.0057280945694966195 -0.0005567280044304267
2060 -0.010352257293147434 0.0012977053610832812 -0.02268884727584545
185 -0.009780399269389103 0.01180269823217664 0.0020624870716049355
2001 0.0020156907591578226 0.013173630360942063 -0.0001483945023694617
579 -0.015744121840211154 0.0016789635708695364 -0.003085274836824355
1078 0.006963327470636293 0.0016567864986049379 -0.002424022262360072
1844 -0.014899837519352734 0.028265435866816412 0.0032721553519379164
2028 0.006387177246419662 0.0058082412668789 -0.006013204067851867
432 0.0015204003615760706 0.006943175874386952 0.00510203604918239
524 -0.003008188302093621 0.013783445996366711 -0.0025823175299346393
296 -0.003572980943356522 0.007990103902263452 -0.0008824037799032877
1530 0.010557304142311107 0.004894319874197173 -0.005507082130007724
523 1.0415555095150786e-06 0.006250419760947295 -0.0037982778357080267
883 -0.00017104885832912518 0.00753489195253568 -0.004746470937299495
696 0.012741176890956026 0.0020767603184217967 -0.011108397428427064
1920 0.010388007823493747 -0.01640392087465592 0.008323046837610384
1429 0.0007969553983630429 -0.0005522311174743684 0.0030360135099449137
263 0.002016492260469969 -0.01425525718138171 0.012455985982742113
703 0.0021853473595935557 0.005861510492536008 -0.0008233865261873171
156 0.0038158345924745054 0.007718470467059345 -0.003807319780051932
2400 0.012959641665126767 0.02919469926309297 -0.0052881236528018035
503 -0.004235458602106488 -0.010738771088724371 -0.012646291243811314
814 -0.0001380082858716619 -9.858781344168696e-06 -0.004023198722705069
1750 -0.005342325065310213 0.002637226857982138 -0.0034186835097800485
484 -0.0025578150992748737 0.00323538373205092 0.0012886985592817752
1325 0.015469048341187043 -0.01238291437567612 0.009509807659998872
1484 0.013931809250553354 0.013867364432609726 -0.01481269735338472
1379 -0.0010266371221917775 -0.005954931861335522 0.016481972273642446
2364 -0.012901101402278708 -0.01974162294602329 0.0028760015906036294
197 0.00211963189160627 -0.017213800786202823 -0.001504145275872024
1687 0.007231261202761419 -0.0029798221952881676 -0.009656713734101425
894 0.0031396333530286677 0.005251154827868171 -0.015257411500498518
1326 -0.012232769167454029 -0.006207329961923887 0.018471166244645076
1062 -0.0010955105085405942 0.006673689699435655 0.009982288535411134
166 0.007608094030820977 -0.004587188094297044 -0.005002490329264008
2379 0.00248237538827261 0.006653753172055374 0.014118355810893046
1507 -0.0043435404954249544 0.0018721340421083209 0.003465601882539581
1446 -0.0021738105211704466 -0.0181147770811365 -0.0006191659285462993
1688 -0.029523098351330598 -0.002109512083217832 -0.008014008065675109
708 0.005905140303625518 0.008070928651823477 -0.00910796695620655
854 0.005579253846829325 -0.017253086290795087 0.006688041242880351
155 0.00708851037179198 0.01567779986745851 -0.0006994265468626244
478 0.008229352622481003 0.0019609554591786286 -0.005836497639327279
1869 0.013374813667017354 -0.0006906367245729649 -0.010761613487800992
2299 -0.004791934325289515 -0.001310875331040673 0.0005285590047920985
1156 -0.002082644849588153 0.0017170500641452446 0.002956396074864546
761 0.0059149515915240345 0.008322024120467363 -0.017197849216019183
807 0.00027475513517749003 0.012276264401093941 -0.002015601221637875
262 0.004844377998975929 0.0028171947108877314 0.0010681692900781756
1399 0.0005785192423370257 -0.00024487521100268443 -0.003298422830163882
1698 -0.004778802456545427 0.00021198850634394583 -0.01039676810242638
1414 -0.00715763847688008 -0.0027987064461279638 0.003234653653418074
469 -0.0021642639738093327 0.0001501110224158612 0.0037136785507067044
1553 -0.012858550118764477 0.004804991062894841 -0.023710850755514764
198 -0.021284605631882617 0.010992504339811662 -0.019938183644019954
2156 0.0022626578833093596 -0.004132033274524902 0.010158694334387779
1285 -0.0006726276537123532 0.002254742352460048 0.003565919017081369
2002 0.00047703483363789015 0.00490822334747303 0.005499232079053618
264 -0.012405266916703477 0.01669294624172842 0.003929885669774073
2340 0.008077749968975685 -0.0060469775801074285 -0.0008246789096600364
913 0.0002476189432940112 0.0010992014059800245 -0.00522560840548037
1430 0.0006109242326902939 -0.002585595483555975 0.0012183806292420526
2157 0.011870716176396203 -0.007800702953887773 0.0009971582843465547
711 0.010538389148967393 -0.0230703669017698 0.01122326981137888
479 -0.010527683868517186 -0.006271645693092331 -0.0011635271533108574
706 -0.0013572717587780434 0.003416013352325236 -0.007615619087290918
471 -0.016172977542477377 -0.006053476657677584 0.0072784190645061074
1644 0.020716328505364864 0.012445013138393671 0.0037976884702165484
1797 0.007655802582796639 -0.005101015152137507 -0.008287171474926039
1286 -0.02528169862945446 -0.009505836720485585 -0.014394823750119058
2348 0.00456780754873108 0.011740365991457133 0.004251370689234782
705 -0.010031153585928501 -0.012479215879864091 -0.01910821122872716
2059 -0.0007258211832477397 -0.0017906073891948368 0.0010899709359126
838 0.0031178852223278214 -0.002908990267200607 -0.0007618456757364271
1193 -0.011460210175817944 -0.012881663728019107 0.002510810922878799
820 0.0029657751910152305 -0.005986322737994597 -0.0012204917302819428
1483 -0.000973147603581878 0.0012587079191025141 -0.0034503328346500517
892 0.002316314316155826 0.008869440652842332 -0.003453059151773115
1594 0.0029646320918094685 -0.0009482773362368539 0.0008113428030222748
1643 0.0013852784016135222 0.00291503577159243 -0.006604843141678085
485 -0.023069828682489458 9.413384729979219e-05 -0.006356601776308504
1192 -0.004124595965251544 0.0014542456477083748 -0.0010096810064938514
762 -0.008920615223491721 -0.012474687803261995 0.004996206350299369
430 0.005895568267015506 -0.0018259664676578801 0.0022214226052942464
1444 -0.009203882401961265 0.0004884398923085149 0.0022794546765097616
2196 -0.0021112085216515174 -0.0036334176922395932 -0.010845720461045172
1258 0.004005334753755046 0.0005882266494641591 0.005327619220386102
707 0.006536526902122063 0.0033803590559633384 0.025318514374777508
1642 0.0001387925075604441 0.0014816914163827122 -0.0018430272094589744
1808 0.0008190440625947622 0.002239764149019385 0.001966345162186099
893 0.0006736825906395591 0.012259298453879075 0.013797535897744531
2362 0.0057725747174671915 -0.006709523513522941 -0.002494116533063095
2338 0.005855612003287369 -0.0027302624065775006 -0.0005061162481098842
2061 0.006079495063053401 0.009635928683595226 -0.005997196170573514
1460 -0.0017123102603015603 -0.005757255043142681 -0.013509195870374288
935 0.003914781633094203 -0.0009592611377325477 -0.0023498778241261183
1415 -0.009579840682880984 0.011282930321950676 -0.006357930436851206
1194 -0.0025014343477911677 0.025666369859911272 -0.0037100408017667935
704 -0.01587062763489481 -0.017321454857563312 -0.006839182661186708
1751 -0.02792171064930419 -0.03308911469113132 0.004881007642072752
498 0.004828349358815051 0.007249444273723682 0.012125216284926342
840 -0.00022503731306238475 -0.008370362331941389 -0.00421647458961715
1125 -0.006769521909839428 -0.0012354728337398474 0.00026940217285493064
968 -0.017785244805910375 -0.013216508760500597 0.002748749342935469
1324 0.0010739971292099545 -4.313977788063447e-05 -0.00796129437777159
855 0.005227396330286775 -0.005140304531804056 0.0045012036955478256
2026 -0.008277092228652532 -5.373080065677177e-05 0.0033928958230534283
1351 -0.003298414672838588 0.006043029077928319 0.0057828740781920105
12 0.00020230607787111225 0.002902643443109133 -0.001967346349671521
1819 0.002287202217461363 -0.003999330531273144 -0.0041728845869729025
1621 -0.005992938639585662 0.002704153650023531 0.0021785541559657226
1124 -0.004046554374780679 -0.0007679645937374184 0.004247032304230357
682 0.0017655337394799856 -7.59850031057331e-05 -0.0001431384113438039
858 0.0084132984192963 -0.010042010398626167 -0.0028478215820796258
1689 0.0077379587987055735 -0.0009624041776494446 -0.009137951815117416
1060 0.0038143865257186976 -0.0029817432750100185 0.0018425216635215578
1153 0.0051285688636408516 -0.0016611636605081191 -0.003418383601798182
2000 -0.0046293510104698276 0.02765439844490919 -0.004051959951847974
1485 0.0028937643680537876 0.000773542688634538 -0.00971217252604036
1123 -0.0008514249310047127 0.002996740029154094 -7.206090665090397e-06
525 0.010641562992990699 -0.018073383494452328 -0.01268174903529919
2004 -0.024860527637877296 -0.020061107946875153 0.007480362649411205
1217 0.009935033080690837 -0.0012382447426307942 -0.02574752847445671
1004 -0.001132777126679248 -0.0011336357844390387 -0.006161776886639161
1003 -0.0024742258092801455 0.003036922592794641 -0.005043391554125664
1807 0.003944311025472176 0.0022117081163405814 0.0013405402693813327
1508 0.016018942599108108 0.016603992586456253 -0.010702066137546797
1540 0.0014009840759798694 -0.0006347140672538718 0.006739100942693135
853 0.006273452376720084 -0.0021478319823856292 0.0046231394948214165
1098 -0.00753893949865753 0.011007961091371013 0.001551384809032263
407 -0.025395432807434996 -0.004117637601306497 -0.0022506520208839436
142 0.0028504613193527026 7.919464094456107e-05 0.0002493944763112572
969 0.014254721262898987 -0.012840912381648174 -0.009038178607413933
1163 -0.011520799228651317 0.004407770571797822 -0.015130927974243836
1875 0.0038426091832751506 0.005032236746889264 0.005161014116945172
1526 -0.015600554178817906 -0.009886958903945385 0.01768576326200308
1433 -0.008597658682764802 -0.006759600052706259 0.0010234744492346119
486 -0.008822237305516465 0.015869946232314785 -0.006758532330337827
1800 0.005534298166197195 -0.008653955446805112 -0.008642329209292351
1873 0.004354883232327477 -0.001253717441854653 -0.0019452479060642423
398 0.004483140621801131 -0.012098134807947336 -0.00564898536669125
2038 -0.0077092785464827835 0.002902560708231544 0.001278413660806768
1919 0.005251341323145272 0.0030222888923961367 -0.0013376717022416178
1097 -0.012828421307133367 -0.007512158054073784 -0.01610164480775683
2300 -0.010092887302820108 -0.0026898265315521337 0.0016163271737339115
2074 -0.0055014009002467825 -0.005317523931419213 -0.005365940522182282
2235 0.0029134301870460707 0.002772534859802642 0.00697298388043914
1918 -0.0010576482120890065 0.003016247683022116 0.0003962362500797579
1252 0.003526090053426832 0.0018316836578198311 0.0015193110095886113
1524 0.006227316279607034 0.00231045602030148 -9.615111574120104e-05
1259 0.021511055286966754 0.008592888215593479 0.003002484814250038
681 -0.013548208816184813 -0.02035848469335718 -0.015596324218545565
1658 -0.00647253616642027 -0.00948967468361084 -0.011178166363051502
1002 0.009483696052056288 -0.006746672193137252 -0.0026584287445178775
1657 -0.00011691264143171771 -0.0011128724185764003 -0.0029911918448771073
1353 -0.009313185789574163 0.012561919219325948 -0.011075326882219749
1253 0.008394853496425991 0.002028761993801318 0.0016069394771190337
1805 0.006083555611365575 0.00501239903186274 -0.01512768114632283
1035 -0.003440673604860698 0.0006582826584945026 0.006377947678723214
438 0.01746448369228959 0.012496922683756826 0.010634273617824616
1254 -0.000511985089420142 0.0073038109547689375 -0.0014376109568938402
934 0.003954479557547757 -0.001583932060070131 0.0023681241262924783
2345 0.02312097926312934 0.006932519776833283 -0.007413838462285581
1030 -0.0008549181781370465 0.004639482853419359 0.003495337545524046
1804 0.0021453386167110023 0.0030069294539996605 -0.0003711235073238705
1155 -0.0025765279478242877 -0.004615818692856146 -0.008059249954371324
386 0.00130985355092952 -0.018995964169055524 0.012391445437520838
1500 0.0095164482251761 -0.005153660214453211 0.01332231366187554
1080 0.016574962947215176 -0.02278249059796181 0.014454292427556956
1529 -0.007525219530960615 -0.0033915258014994855 -0.019515902567012574
2075 -0.01150260586798159 0.002928208166660344 0.004109547505590264
1434 -0.009387953095060842 -0.0011926841557989897 -0.00203080588951127
1874 0.005663002039121189 0.00476554501408089 0.0011981920139283425
1635 0.007757623290435399 0.0012975569388903058 -0.010713679891483887
1045 -0.0017023639154373409 0.005127397882528192 -0.0021522206022340155
942 0.016847020927900597 -0.0162048028599133 -0.007870120452281202
1536 -0.0196923654798968 0.013265783083875807 -0.0062799465135148
1009 0.002867366040898448 -0.00034652896575577334 0.0005790519670136215
1013 0.019344138928655507 -0.011376204551419997 -0.011798747617740189
1692 -0.0003442814533292204 -0.0015902872427864467 0.0068371729671338225
1954 0.0005020638856474834 -0.0004933093612080103 0.0033147251032982225
1263 0.020129292228437914 -0.033767341515269805 -0.014066701191578853
1118 -0.008628608630498228 -0.00486738920367199 0.00048213132714227546
1685 0.012034229951883626 0.0002829318930623643 0.014968819508868919
86 -0.009238451112877858 -0.016040217416831398 -0.021539688521248396
1227 -0.000842401829181934 -0.006132414674708617 0.006838195163250891
1810 0.0005179105639028215 0.0026808795435361633 0.0012991024419909966
614 -0.017754671532314498 0.004647896249988059 0.007587079059954295
1405 -0.0038714193303743833 -0.004871138653305939 -0.00021229365866635825
887 -0.008416964150153293 -0.016030089946025186 -0.013693366666676124
1000 -0.0029244043070623914 -0.0014465279034962036 0.005114777509082063
941 -0.019836531070549775 0.03026498765101994 -0.012051646157272076
230 -0.006345672698386264 -0.02510251532214735 -0.030292713193458033
1735 0.0030801542454904777 0.0038968294892265136 -0.000271801090013409
610 -0.0019236749744631573 0.0003837204913908808 -0.00013219914039706566
188 0.001438039915018258 -0.017758100991937052 -0.004574310271373457
749 -0.013138386849115807 0.029326280783390817 0.01611422064064993
1094 -0.0034052324964558454 -0.0010770264573694702 0.013337465054862241
303 0.008674602731754638 0.017824738209481227 -0.004244343352839449
404 0.00885953226203079 -0.007019325047475602 0.0030766667190628254
287 -0.013788807279030752 -0.007494248093269522 0.014667256190366566
1344 -0.001897227675657652 0.002080721897488174 0.0026700656000605647
1726 -0.005163996882705657 0.001629883878557371 0.00013875348012017143
440 -0.001513243651403012 0.008451052411867062 -0.00013946770178065
51 0.005667783794833643 -0.015155169260336531 0.011904780987487994
1093 -0.00484274563704139 -0.002375919173833948 -0.0019590010657497894
1502 0.021016766233736515 0.005093363882901588 -0.005820622454368495
212 0.002115259720837367 0.013357973352766285 0.010912917187191427
1225 0.0034979897305128503 -0.001845114675447865 -0.004186368788249568
2392 0.0018005500525116052 -0.0015458039976457398 0.0016051588250747075
434 0.006190308122561395 0.010001793510157585 -0.001077737376763306
307 0.007549530868116058 -0.005787358334512821 0.0023102683369909667
1341 0.002153690578799876 -0.013614864206699849 -0.007747801829419779
611 0.024122179818240854 0.023381783417059914 0.009905063880755136
1262 -0.0069496861433938845 -0.010051860042946784 0.021724588781627613
1490 0.009358781437292999 -0.012140406638396186 -0.004515053918469225
1598 -0.007379823983650001 0.018754270005432696 -0.010014791343834066
851 -0.01352406297391164 -0.0007991684284242746 0.009677947931969919
1902 0.004422492730908556 0.01646240424473023 -0.012014780422823734
1343 0.015799400039747356 -0.017525457286686707 -0.0018010389752647802
1517 0.0035035288074264925 -0.016045917185450936 -0.005952742063250282
247 -0.0007750880146806751 0.003585858324773308 0.0054614956075719695
732 0.011184019551815956 0.013914329299607977 -0.00289731568289705
1044 0.002874846906640695 0.0024974444628897375 -0.0078082049097459695
258 -0.024213792363865495 0.015341686791866536 -0.01213667828389885
1395 -0.008730427736333651 -0.001472197641709975 -0.004506405174415926
468 0.0021017714656520487 -0.0036910317119731627 0.013588139790890746
1246 -0.0036143318013582316 0.007984418095476117 0.0005830246469561718
441 -0.005439868523930728 -0.0019188368397332516 0.003995496603908254
2246 0.007761477503140229 0.003624090014472831 0.011885748364390786
835 -0.00019624875357539425 0.006508093076364809 -0.002690757397223619
1930 -5.22439379383655e-05 0.002090509050227799 0.0037946901699097563
1996 -0.0020620611020381757 -0.002423726475793359 -0.0012826463987568588
1491 -0.014647952130430499 -0.002757881593168804 0.011126970104651997
2101 0.004548676521359589 -0.003921585679719853 -0.005779293960139404
1686 0.01009086420984422 0.003324670043572645 -0.017477211297652936
375 -0.015549758608108973 -0.013087213435580934 -0.022457269525251934
2306 -0.025909089901908704 -0.018642313142954316 0.0025588677389328757
470 -0.00945194247646542 0.0038065081171638083 0.006298718673093071
1182 -0.009812092727258635 0.022397048217728425 -0.028132497760036314
857 0.010794984148251693 -0.007211979704993094 -0.00688237952213914
1183 0.0017754541333416846 0.001980125153118459 -0.005916712215569494
938 0.008400011226958876 -0.02243339822523687 0.009845275298109923
1968 0.002690133708700745 0.0019153555005921277 -0.0048221739576185495
1119 0.0003431730504856964 -0.0037396322220809323 0.015345797756380038
1959 0.002428453457825949 -0.011009786787129435 0.03275790710909185
2394 0.015187170429215375 0.002671918306570789 0.003954087673022292
1727 -0.0035384383253441523 0.0004163346728599178 0.0010188415345115877
1095 -0.005571145989627956 -0.0101784178050441 -0.005611007319178545
1512 0.0024224292982323358 -0.005361674394831445 0.011550773492823158
1845 -0.007642997099287645 -0.005028193879503623 -0.009376906752571513
248 -0.001865446359580101 0.0052388386978361855 -0.0014835866669952204
629 -0.026806625196706357 -0.012679621567851932 0.01674218601403269
439 0.00036573447718476744 0.002691982074392068 0.0013538696196199866
1167 -0.003433659952169756 0.006210430716898287 -0.0017361175060929203
1707 0.011906776845141243 0.009574476998241295 -0.011448261563685638
1339 -0.0033721321456798535 -0.0033207553940748495 0.0020081300435783257
1811 0.004682786325088808 0.019232903029992185 0.007224092904262822
1701 0.021392149236035513 0.0071604148401184405 0.024439155445567698
1728 -0.02091750675671143 0.011304549839612613 0.007519702855670449
2012 -0.007679625983097218 0.007128919768297477 -0.012895866107338982
226 0.0076116118860487855 0.0040512271431348175 0.00047415203986701164
213 0.005740488662671375 -0.012587795875110747 -0.005242832925915603
249 0.02577265943149041 -0.018862312950991444 -0.010736314258084042
1580 -0.017900673683424677 -0.002446937886978064 0.01800244666587596
774 -0.0023223634091643296 -0.007192970486641093 -0.013966002975090083
1318 -0.00023898605024825933 -0.0022234620818222892 0.0031771218839364685
1565 0.001985606395579611 -0.009766521407002633 0.022000325688470577
2393 0.00282503156623045 0.00400298384950539 -0.0014907100266226654
1121 -0.0037583889192164726 0.004547766317811644 0.007068365476737666
1272 -0.002594251934556989 -0.004877430697534865 0.005239166171298503
1843 -0.00077422701803665 0.010031641766414481 0.006357665510199444
87 0.0030150844780340667 0.012436879838267178 -0.0012609606143910487
2307 -0.009158415849733693 0.022900482059773068 0.011808738298687603
1122 0.0024776690915186152 0.017661251854978043 0.01191539621987186
1126 -0.003077800847134193 -0.002178271118547247 0.002941375720180443
1393 0.010124453178179905 0.0038931362832682974 0.0009154291019585507
836 -0.0032398130902704415 0.017454247081496017 0.0006603578810183971
257 0.014971722877311834 0.0034912419781685613 -0.03423365645588942
1319 -0.026306457720952855 -0.01170803495419067 -0.0036863901049568695
1579 -0.003139993383777406 0.005666952300470609 -0.002725787876915866
1185 0.006829583154584244 0.003699160833271198 -0.005075522105916365
1261 -0.0033613137615421756 -0.0008442161090849996 -0.008944697305912415
1108 0.0009114771803920529 -0.00011220219105217229 -0.007733172096837624
950 -0.011054213180061178 0.0041460965483126645 -0.007143681109448333
433 0.0014162646710028006 -0.0010547266660200783 0.0024654587853326615
1407 0.005896561239737971 0.003981186166147099 -0.015433329405614439
1043 -0.0008133514106501943 0.002829990413600489 0.007863406548738303
2247 -0.021026672848762584 -0.004925049704376919 -0.005898787641113698
256 0.0050991627625531395 -0.0017607219500685362 -0.003173589017048021
61 0.0040116747062549935 0.0015798443902762626 0.0012985274025360172
1181 0.01678134020328263 -0.0036032264972941917 0.024240781095034008
2380 0.0059295409611394515 -0.00039539326646537295 -0.0010246088373014437
850 -0.0023310562184872597 0.003085017805011978 -0.001314839523821476
1564 0.005585580579783428 -0.0021468677279948287 0.0066935578691602465
856 -0.0008676709192415784 -0.004337729307271438 -0.0019374815653121174
852 -0.002353294162224865 0.012411761720073142 -0.021937058410046385
996 -0.0046909738351715155 -0.004547760447161774 -0.004670919520134649
333 0.0062059532550336645 0.039770779356053894 -0.013912962929978364
2178 -0.005473594402006159 0.004608516631286832 0.010170725168300013
1699 -0.002218883771760082 -0.006126705838337078 -0.004164460380241545
1328 0.004155262818249976 -0.02021421338558315 0.00501083794288253
467 0.010861084924228097 0.0020206660546743557 -0.002422557721223496
1270 -0.00773251249304281 0.0033350002240380818 0.001018974079716281
1958 -0.034977958306823494 -0.0005847169452524664 -0.004702955982419734
529 0.0038937697619750512 0.0041714227349182965 0.0012981810169848773
2177 -0.0038102779409230464 -0.006191105839242556 -0.012360147719574053
2162 -0.020096579171069492 -0.003586433220675472 0.017470669432950222
1128 -0.006815644236218992 -0.014412515166593044 0.012104072261077185
1706 -0.006221056954288713 -0.00729918313225591 0.015640564781168084
1997 0.0016810112156699002 0.012304137650720637 -0.03146392747125467
1184 -0.00841707040585877 -0.007486689876222155 -0.0035875824682353934
2245 0.006071121284645257 0.002017631849765914 0.00018856690251326246
794 0.02524042428914026 0.011090774435547601 0.003698753744568265
2085 -0.004934041770081554 0.002185580436504966 -0.012240526972013523
793 -0.0031825962391813863 0.00427099760751767 -0.008089518763090992
331 0.002736063644168931 -0.0011712023710148704 0.0030272944281468503
204 -0.011431583518287013 0.009871129228219417 0.0007712961931185818
2011 0.0029900442905101132 0.0018000940797270068 -0.008344933360230754
1247 0.0012242166191252404 0.008069589515193943 0.004919781285123309
951 -0.0030339938015834476 -0.024846739294593218 0.012391684315931793
1538 -0.0007891871355517037 0.016911626216264117 -0.0003588487734934351
288 0.006289016121653462 0.00491110538744411 -0.011183141467098241
939 0.001579142354935449 0.00047793133451453366 0.0023558362286322182
1705 -0.0023850207448196173 -7.60133767144303e-05 0.005013600627824243
1503 -0.0009119834917961615 0.0068620033282891955 -0.004433959051253393
1955 0.007595549044792006 -0.011080199242799186 0.0058500541607873
1160 -0.008752678822918879 0.0136774814863544 0.001922998005688498
1329 0.0018423555320199697 -0.01738309040682016 0.0020423464327592932
773 0.004518476152501851 -0.022628577138502554 -0.00010578190599702641
1535 -0.02275639808146119 0.03012621663710856 0.003957756470170383
1176 -0.01386560908248203 -0.006717250033856859 0.00683991326489738
940 -0.0014952264606440534 0.0014319897046415988 -0.004957820979739236
1677 -0.003943169937613022 -0.001291898940483204 0.0015318898093504222
1832 -0.01909371875491045 0.010325271507378074 -0.005321170519531095
772 -0.002540970472692337 0.0006447367170293787 -0.00523932110744908
1566 -0.002075083987055976 -0.002095084533655118 0.0102087029729094
1340 -0.0016967510723318263 -0.007643453840772903 -0.00615755153218651
1055 -0.0020836080816680432 -0.005756023504650103 -0.0021913678441576345
2381 0.00488301401635168 0.001331605293747944 -0.001292184115603885
1510 0.0008294458241732733 0.00212108485073425 0.0009832924594044968
501 -0.009784729100151515 -0.0002592105601667407 -0.0005528509575653941
675 -0.015917395773442016 -0.011175928206992503 0.011391624281665723
1327 0.005856300497078195 0.00010618098649692757 0.002139360088052223
1957 0.00019112446393917013 0.0022231647634891097 0.0036891755547033577
1489 -0.0009659906369478407 -0.005287624609465536 -0.001871500706866635
1675 0.0040908341389797225 4.259634040905122e-05 -0.0030258685079771917
228 0.01633174812588588 -0.004186815977629652 -0.003793001643694731
2103 -0.01080247789638595 -0.00871637956933835 -0.0009930547813053353
837 -0.005051718698754763 0.02488210909310613 0.015314744254465539
1817 -0.01111225855959862 0.01143166774768767 0.006681241430148325
613 -0.0037698400655260724 0.0067460817871020555 -0.002739027383376549
995 -0.0009382390450808487 -0.004308662178638501 -0.007708324821150724
615 -0.023227214372053932 0.0066328235354049464 0.011884512196438194
1127 -0.008131058903915704 -0.004168309568815733 -0.010283669950815763
1161 -0.01722449147414079 0.0016735971243324892 0.008981617834086896
888 -0.006378330239502195 8.418080772882844e-05 -0.0076427129659350146
1733 0.012265295636854237 -0.0015245162109234277 0.005526307033789751
405 0.005796544008421142 -0.0013267402531707147 -0.0067102362835298425
1690 0.004653156534568622 0.0008263948695527322 -0.00010457288352339361
1998 0.017817275148449163 0.03163205060687838 -0.012356397583014616
466 0.007210271273952807 -0.0005729032165696967 0.008537863781950502
1120 -0.0010288002390921726 -0.00033098560770060794 0.004855471375986867
1047 -0.0010642936007324532 -0.001112304947900639 -0.003955336471831848
403 -0.0026968117166575396 -0.0013503779555153513 -0.007315791696218725
937 -0.004569918733293904 -0.0012111733764638894 -0.004355323535181808
1175 0.0026112067129763273 -0.0017745682010719362 -0.004732899924559822
1932 -0.007229854207938175 -0.016102736084599563 0.0047453832398787745
1599 0.0018663864429158024 -0.01167096163412645 0.004603745585840379
1320 0.00398936507977317 0.005274696921513985 -0.003291759910913207
1931 -0.014209883093858695 0.0038167042009318573 0.00837304624562249
674 -0.039524845371902324 0.027621807113202643 0.015816137664783136
308 0.0012603572026393976 -0.009847456490659249 -0.011058480385391542
1966 0.0028435435956958633 0.0036506564202559467 -0.0029289978319650563
1011 0.013249506135502966 0.005527291996153071 0.015964617828571753
1174 0.0024236392861315056 0.002912120505658074 0.0048220244247856175
1109 -0.01223531424789616 -0.00530034904335638 0.003401950270686732
2358 0.008817948263869878 0.016994843623190155 0.014790622019642508
2356 0.0019244516868410736 0.003226826395608199 -0.006375858533359888
1501 0.003910329711951431 -0.0029336000569032713 -0.0009045926873731801
1056 -0.01799167538534848 -0.01339209623591157 0.00897745910542185
1806 -0.0032678166678209563 0.0008917265424864728 0.013690110392938413
612 0.004253431484911259 0.031230246434208072 0.01095809615398979
1117 -0.002436663018691566 -0.0004380138295196698 -0.0033862074657261877
867 0.000527544684301451 -0.014264732434789875 -0.011156938069815811
1042 0.0007956724322195051 0.0030737881402768934 -0.001728767351295064
203 -0.00863075102304359 -0.017289793527873864 -0.008873907916574546
62 0.012309374479319518 1.06616228149297e-05 -0.0027587974678405574
229 0.004534552211814126 -0.00048113631616652407 0.0014508706060442098
2357 -0.00793584966545365 0.004692587208142942 -0.01056276531683584
1534 -0.00019925191425506391 -0.006704153267809504 -0.005206535574084395
1812 0.006044162634668376 -0.010211739261850513 0.014848544914330736
891 0.007372144810070918 -0.005328957537411599 -0.009918830979858774
1831 -0.0030432899694482 -0.0025229902341216076 0.005982546760890933
447 0.00490403849953993 0.04028390867734449 0.002537479215359031
202 0.0007711489258126659 -0.0026795643415889574 -0.0024932719922260154
1732 0.0029854043843934213 -0.005953069070537314 0.003318426063233492
1271 0.026626248709957216 -0.03946927613314329 0.005904372621086875
332 0.017829985942138235 -0.0017401809980145152 0.019282882211858032
1691 -0.00432056811716145 0.007463450648978322 0.006443732738388241
309 0.024545060449292545 -0.011527323953144623 -0.003996886118188218
2305 -0.0028446876857987097 -0.0035800389860669115 -0.0034941112207553327
286 -0.002747298132617548 0.00027105964862171117 0.0003451025568922653
435 0.011137817991609887 -0.007794520119927718 0.001269705297761984
1967 0.01403025069536335 0.005806733626695945 0.0005634752333698337
2176 0.0028446157479468377 -0.005929885468962789 0.0014881945686137344
1166 -0.0038257522922054755 0.0023015890873078243 0.013051743423750215
1180 -0.0001576686382163429 0.0077346597447340345 0.00598252764937576
1394 0.007278916949626794 0.022949686357732955 -0.005167703915574645
1684 -7.506966198672025e-05 -0.0016980402925152285 0.0003071848597578814
1809 0.0035192482957916 0.004760550628859243 0.0017797908943407259
1956 0.010262369330732138 0.009120600408662308 0.0005220010823309267
1736 0.003888109911774212 0.003194541409695301 0.0017017150546210652
1159 -0.00390583831663589 -0.0013490698897186694 -0.0021083268677789873
1833 0.019255121420549484 -0.01356446233719591 -0.012078196003579945
1046 0.0056660633703899095 0.010297903500969973 -0.004554621197282867
1010 -0.0024934602031918144 0.01565381589338622 -0.014198273827996793
1406 0.004450908369884181 0.004357153165098772 -0.013392198892935468
189 -0.005801297780573104 -0.005502814966370789 0.019495250447273817
1028 0.005055849077042123 -0.001177918752695721 0.005805445289713554
1029 0.009799839653355074 0.011478326441285422 -0.005564380157448651
1597 -0.0014740462571680307 0.0019279448030309853 -0.0020111973984586157
2013 0.007760144258479598 -0.0017910455679914156 -0.00442282116583802
63 -0.0015099858444658336 -0.01775349074033041 2.456611781066734e-05
886 -0.005212066203562868 0.0038228241683366674 -0.00622067554399257
865 0.007525867144392593 0.0004327063256336811 0.006003255664510275
1342 0.0030694474683401526 -0.002651017357982518 0.0016193553839317337
231 0.006192366363207622 0.001804462733672942 0.0059719345406724095
994 -0.002901135195082384 -0.005488367874593966 -0.004521130366072517
866 -0.01281830609235892 0.0037121594727377904 -0.013689712794309345
531 0.010303317381832553 0.03539157503572799 -0.008468404587248487
949 0.0046549266692807 -0.004480829751961478 0.006907449581901165
1165 -0.0012521338268435928 -0.0008201080326742903 0.004447349277298869
673 -0.003427528355269943 0.006662403738985688 0.0048002845265403115
530 0.004034974031290752 -0.002220323211304424 0.0033336731776091996
1511 -0.0033723972606670566 -0.000585882955468475 0.012756336703653033
499 0.0011510970441084448 -0.0008580320127560304 -0.005886797282594167
1110 -0.008543199190146487 0.008200204686936025 0.009292699140994036
1248 -0.009908069986840816 -0.029559270077272517 -0.0021512270090971826
187 0.0042166099523010215 -0.006385156234495448 -0.0019867597145010285
2102 -0.006720045335754461 -0.006328395445406215 -0.003656339035298787
227 -0.00151519176085504 0.0035040828579790714 -0.008555670931040116
85 0.0006920535269639581 -0.0037808284902782433 0.001735233035297222
1235 0.0015509252306134386 -0.0018014272914902059 -0.012975240877892659
1737 0.013893706071605401 0.0026909673815248415 0.0021731822979014948
1027 0.004121150913746618 0.004448433537477164 -0.000302421766161963
1054 2.8098425775832195e-05 -0.003175646237900364 4.354184200686016e-05
302 -0.012068579001699307 -0.017872287277879945 0.01821481286148026
1154 -0.00360624153319503 -0.004955074291208715 -0.01096690481041241
500 -0.002338586300557576 -0.00950403189889797 -0.00979121177507024
1001 -0.005975714432697412 0.01200649192006597 0.015387418964234916
92 -0.008182460497331578 -0.008641517498497637 0.008394584794142455
1322 -0.007349738225257493 0.0043533771537620815 -0.010457851522010144
24 0.0033085629165114103 0.0020839307986234012 0.00198312559103409
1545 -0.013162594270773762 0.009845312179414499 -0.005036611443034135
739 -0.0017419671378226492 -0.004346148946727005 0.0017807577490869513
1573 0.001054518894956972 0.0009205694151799476 -0.004054323482495914
93 -0.004941232228522306 -0.005275912713737016 -0.0038737426834803287
136 -0.00030587397963643845 0.008198108715938287 -0.0037750702232932105
1077 -0.0098727783033058 -0.02359623099507029 -0.012342017894506346
509 -0.01893699810139569 -0.00041919432039013495 -0.02947681136452588
173 -0.01928038806407073 0.01630596789933725 0.016260365311501036
1019 -0.011333104168618584 -0.013562782509432119 0.004722497121396853
59 -0.015695391039400222 -0.0001554232136334532 -0.021723464278487523
1213 0.0018960074516521654 0.006338324665311132 -0.0002721912235407642
1076 -0.009802027437533846 -0.007844004513747768 -0.013765040969321003
1284 -0.009069869068063941 -0.0007387599700664737 0.019826230441694986
60 0.021392811188902884 0.03219907145319997 0.010003740092167297
1316 -0.006675554533904119 0.003289816621892272 -0.0016041060579909331
828 0.0124928443612148 -0.004533703879844564 -0.005184278721710761
1231 -0.008249062692139736 0.006423944873645811 -0.0016288715048209377
964 0.0037551447845694643 -0.0020120107742441656 -0.002538814790584567
312 0.007035588911034337 0.0024600400729989777 -0.003287862381631529
2 0.014104940450967074 -0.023147705279351404 0.002753084467228622
1059 0.008619757338505408 0.005436312316796077 -0.005217508410157041
137 -0.011388094670787522 0.015183621954617425 -0.01709455350426259
639 0.005749587486000524 0.00403433034572012 -0.003631236277720694
952 0.005300343017691175 0.0010677660495506326 -0.0005846192697376817
169 -0.006965778196826834 0.0044441508554604 0.00424931328156402
32 0.00423288798003856 0.00033832727221305654 0.013113146872470746
580 0.0013975671725664483 -0.0008310993206111728 0.0015894534379195737
53 -0.001550172514855298 0.01256552572531965 0.00862605601279816
1075 0.0004987576067632095 0.00546614271901869 -0.003997421861659486
58 -0.009473961688385775 0.0035689001062590444 0.001737947285440696
73 -0.007643857022885136 0.004084614420108483 -0.002267005534971499
1020 0.009941020653325723 0.004841908303480131 -0.0017863351330064147
1702 0.0007468751231365768 0.0012631455612673913 0.0003507327141147565
1362 -0.008021433590080044 0.011489007025961683 0.003763212029387512
2372 -0.008620736635058319 7.341526949460621e-05 0.014031653351106345
323 0.0331067150882141 -0.0069756527920618655 0.00705071431358002
1771 -0.00047662574623198007 0.007371995065439591 -0.005713380998405374
2202 -0.010367648115121692 0.014695109341450265 -0.0002542980609757963
2009 -0.014713313013553985 0.01105495190234288 -0.017304084954827288
1679 -0.020813356449102018 0.023041706658549394 0.006756051849123877
2322 -0.013213924082918589 -0.0068624447819153975 -0.008883839797080772
2370 0.00029771616951187525 -0.00839216242009179 -0.007360176799547031
1773 -0.004564047602501896 0.009788820629091295 0.015187702483334451
1282 -0.005334370567863367 -0.001915715511082175 0.004262799572857676
47 -0.003963014117171938 -0.018142647431493658 -0.007042207596601563
2030 0.024610087721998644 0.002176077391597998 0.005134759969601046
428 0.004255938235102732 -0.0012338131868662333 -0.0021304384935832356
990 0.008172824991721908 0.004877272633068726 -0.008307539125826623
2100 -0.012544954221719052 -0.005351407562174073 -0.017951002462724443
1345 -0.00010052559593607454 -0.002755023795045871 -0.0011277773334588369
265 -0.0025835142004745387 -0.004726169760506396 -0.0013829965898866055
74 0.004088510323697828 -0.004083664592015402 5.4503932657618964e-05
959 0.013248081780984624 0.006228705115447291 -0.004478103192708847
1946 0.005605039539465671 -0.014207952725633964 0.004993555991257429
1682 0.01473751210933296 0.007087815870210762 -0.00517966108604769
1092 0.006591237159662493 -0.004741028043859338 0.005390832028980542
786 0.015718557639023224 0.006042654935126448 -0.001685004556068809
68 0.0015766301078399907 -0.004483260906651818 -0.01136780248049923
965 0.004659000229250946 -0.0053506984745420065 -0.028170939185848502
2029 0.00599409560280961 0.006508971929975827 0.006840540343176491
1543 -0.002549328861749164 -0.0003603031835963728 0.0055514620468842925
638 0.0032834896122630516 -0.010378620136951738 0.008168878613494973
1857 0.01841652094046164 -0.003836384282318645 -0.016729166718553342
2121 0.02341946179277616 -0.0008760320402729226 0.0033228579051615
1296 -0.01487531252440383 -0.000614759238367946 -0.01213526840202098
510 -0.012258876933402356 0.0037397362835322715 0.00969142666800915
2320 0.002627517458265553 -0.0002998330312114704 0.004206267690260889
734 0.004843273081822601 0.009839126539217188 -0.005858763309499851
702 -0.00224989064296751 0.005617519795569643 0.005786456578385305
903 0.007872404811810459 -0.007558039149436962 0.006187350061656062
827 0.0009739795647574545 0.003421292870626002 0.023290631977624855
1368 0.011127184404991617 -0.010992969656277995 0.018999538964857027
2064 0.00017233300630462766 0.0025232742630822936 -0.004778151090135445
1519 0.003657430878107071 8.837697277528678e-05 -0.00390848337742011
2115 0.021848929798583626 0.006027360258201088 0.006049455890723202
1376 0.0019725500807646857 0.0033766227320122734 0.012344684508974513
559 0.0012994765382274883 -0.0007716894887465742 -0.006714001089437857
1681 -0.0029952466955911142 0.0010383877735054754 -0.000825440088914175
862 -0.0044795717857400615 0.0013914049192629474 -0.001164824267615145
1917 0.00028928463558638734 0.006308667954937833 -0.013673238503498166
1772 -0.005765372774811264 -6.994922900060447e-05 0.0007030340453677117
266 -0.023279307431844944 0.00330623400528326 -0.005976238653158206
2099 0.012087802957168686 0.0005491804782380034 0.010881096889532345
1951 0.0005828045081956772 -0.0037083715703141455 0.005198446985063208
953 -0.007697186184620028 -0.009664263751667321 -0.007293174318800479
31 0.0065617943529089826 -0.0037611976757948133 -0.002022248659763172
410 0.011523208699608666 -0.021649687852193508 -0.0015296882779913354
379 -0.006752515013232171 -0.004692723675385573 -0.00188696859889099
126 0.008470054570433014 -0.010557411417528993 0.005636901895528037
924 0.010244237838988006 -0.004691208424074831 0.0034889014693543475
1178 0.011452001850918771 0.0011265660192159397 0.006802965090943923
359 -0.0029377500358478644 0.012356829279548374 0.0007556461661680934
1294 0.0035101953784130225 -0.005281242381989354 -0.005808775326272662
1241 0.01791386334415874 0.014715798697055056 -0.0027834762641331407
1015 -0.006180278418395862 -0.007398694074108769 -0.007214184071781652
124 0.0004197019982449868 0.003284002452607966 -0.003651684662013693
548 -0.003266108840201072 0.0017486817141821383 -0.0032140187488636047
514 -0.004612807551898586 0.001209807672199066 -0.0018734245032999727
171 -0.00991482245944554 -0.0007404268729304957 0.009498309644563387
2144 -0.00022187348802820865 0.003797662915367483 -0.009274160227892549
2053 -0.0016667233739488766 -0.0009364249754975128 0.002442896377065156
1881 -0.005995832871117871 -0.014184839632032 0.0037560629017231472
701 0.0004999834025171103 0.004565683014834838 0.004416423371349617
1650 -0.004365592402557885 -0.02496609109588267 0.001439675084539783
172 -0.00574204327009702 0.0026710060435891636 0.0009449087105400753
922 -0.0010473229007809625 -0.002121181035963807 0.002078065387196619
1058 -0.0024552666005051415 0.00036732931220483095 -0.002238030935774621
1113 0.009797385672529905 0.00048253617805116197 -0.008327207862323906
450 0.005666166382561008 0.010725846400697557 -0.0177887479794913
826 -0.0012794432799970727 0.0044845073488143945 0.0014477607019436661
637 0.005723340340277868 -0.006237845343693433 0.0015791624364191541
1841 -0.0022797197020086317 0.002892507894488158 0.003940521302674606
2279 0.001254147106166541 0.00012294597896039228 -0.015111255144499078
324 -0.0125434944204298 0.009834626991004982 0.0046646292421937035
163 0.0021957615906112705 -0.00457829035628137 0.0011821826990697022
2200 -0.0035841336085686323 0.0032676139203781846 0.0003432821104935297
1520 0.0040598179127259906 0.025116880018278116 0.0024655010400563095
1295 0.003257216889899289 0.022695960929662216 -0.011438874964691962
1921 -0.0011710907095323774 0.0036811481592750406 -0.0029883162019501476
508 -0.007470941339006806 0.0009220489919691916 0.003445462874808087
2248 0.001801135938578827 -0.0013581211423830872 0.005700260667958721
1112 0.014293372149047157 -0.0034554273613583483 -0.012088179192971523
242 -0.02950387721031607 -0.005108339576404718 -0.005533126112363868
2270 0.012976722554342601 0.0005454093854825588 0.00713260516605254
1866 0.005978858704023423 0.01628665955748697 0.009748684259967052
429 0.006038627771470389 0.005703891930141738 -0.00022499665710583544
1880 0.006544456825260377 0.003233591560898068 -0.012227662840446109
2056 -0.0032085607277637677 -0.0007118091491046523 -0.005727804275199643
581 0.0007142360688474097 0.004152907475585544 -0.001755998770960317
1215 -0.0019105118557454575 -0.01203319684491057 -0.0046411876541779945
46 0.0010898967389257734 -0.0022688876740890344 0.005582253211765112
1323 -0.0019621367540347437 0.012390317436502412 0.0016780704241287458
16 -0.005458958228683351 -0.0014238434186431607 0.004028141243322929
923 0.0002241659043875217 0.004319598330499083 -0.007321453113642043
241 -0.0023586754115935632 -0.0007719978936950492 0.0008389708454257604
1913 0.015171968049354438 0.012027664768056013 -0.007522153539425889
1220 -0.0019290678111878812 -0.0026335873095707655 -0.01157880625388376
1385 -0.03030011937088923 0.007720159017105191 0.01311327704406527
2371 -0.0014159589553934915 0.0012806475722465164 0.003941492237143837
380 0.007244052896189172 -0.012301359055361541 -0.0005526800945265027
1179 -0.018688694423234394 0.0022439286492416054 -0.0035896221443590796
75 -0.004356466944038563 0.01688439442875983 0.0034078915300866774
1885 0.004827211362291533 0.010669474958207976 -0.005852765256509825
1366 0.0026079496515141122 0.0025564526104439626 -0.0019464656784819647
322 -0.00404391437022764 0.0014411581442635216 -0.003401691083447161
1864 -0.00019549792603752652 -0.0020203771934085347 0.0024712371003628272
1233 -0.008999009253522145 0.008334938293075493 -0.0009397218003808154
48 -0.024242558862178312 0.012792190664708849 -0.005661843486868258
2337 -0.0017937354184269388 0.0014438997729878294 -0.002298255938149558
311 0.0002441012327060431 -0.00828780594873664 0.006204197429694797
36 0.025537878574502425 -0.03943792227152445 -0.018005585278364135
1836 -0.001994974022827432 -0.005500073210567576 0.002047875706871538
561 0.000767573533128994 -0.007219971389632431 -0.008522480564309638
1583 -0.0292058453428775 -0.002275794702302653 -0.0023454158402972662
149 0.012671401410993412 -0.0002921337913204468 -0.0008382437823351325
1977 -0.0019563762641767513 0.0066338727853203685 0.0021671583694290934
943 0.0012435549673884944 0.0022751754650374434 0.0021916528122346295
1360 -0.002673742143735005 0.002610184392254914 -0.0037701371436081313
1544 -0.0029286996732301525 0.00019393316558781576 -0.0030374122749683976
2114 -0.005399033331100888 0.01033335458776222 0.016525608823729335
1384 -0.007335536156255478 -0.008967657570814976 0.006892766247267481
381 0.004575855672798838 -0.020780831227709174 0.006108049270054677
954 -0.014855801014905788 -0.00459151951021348 -0.0025710249552365404
1892 0.004078244213973939 -0.006859658759096264 -0.004487585747799444
1678 0.00039738291817209 -0.002917125865856369 -0.0044287956623954156
1879 -0.002006143646593205 0.0042322933036760945 0.0009234162402711114
2335 0.003695133878820853 -0.0009720943331886806 -0.0008259862919531016
427 0.002570491154990909 -0.0008504915446236608 0.0024379853776881036
310 -0.00023741001260900397 0.0014686264105534786 0.005621043863171514
243 -0.0011526122936197155 -0.0036821600140707626 0.02706712787942229
67 -0.0026385472344933273 0.002665016827179556 0.0013881214073199314
1221 0.0032876141618933307 0.005024894951041192 0.017009459911358694
170 0.003400107481161379 0.025413889567678573 -0.01232829583381608
1240 0.007547863757156447 0.005035873863710811 0.005614897717900049
2250 0.01073474352333735 -0.01845569696549202 -0.001697163133818869
1018 -0.004089188594258776 -0.0005931966275330554 -0.007888629680424822
958 -0.0018833100336725854 -0.003498064580899529 -0.0008748193530271
1317 -0.018235354615115336 0.0016442347257821393 0.012177847307068577
945 0.00515665451967422 0.011071376213887343 -0.0001517978625132753
1834 0.0017717403157111618 0.00334584544654153 0.0016786339154578342
2321 -0.003981234269650772 0.024761887980330854 0.035153389728345856
1582 -0.002116159757138364 0.0021813811645437636 0.0018665637852393012
1960 -0.004063991817628475 -0.005195207466652411 -0.0009638369247402498
1091 -0.011555806176146887 0.004824867028249609 0.013136111337615242
863 -0.008023034931890053 0.004639113814883929 0.017336695118268963
165 0.0020513627835332423 -0.014566352655431353 -0.009271013003109462
17 -0.006707197402115077 0.0053466220131805535 -0.008173415200020734
2249 -0.006546928699933767 0.009502738211852468 -0.003669254310052589
1057 -0.0005507659352287614 0.0015154620618340368 -0.00452681123228086
1232 0.001444046558662486 0.0009376966349728265 0.0051483117148076575
1283 -0.0026566452928649797 -0.002625355114440793 -0.008138345866018592
1 0.0010489338847767815 0.00043392362662745046 0.006930373108305485
560 0.01048322063020363 0.008754367174643531 -0.006067941441547812
515 0.006997818527601545 0.003915990843481423 -0.0059201468419582005
785 -0.0038021532028797915 -0.007646356318280961 -0.007805806097110827
547 0.00018258969572429866 0.0008480505374594293 -0.0021063754707862765
1976 -0.012974708964087527 0.020147732719473677 -0.021183450646657057
901 -0.006280275632416482 0.002252360173478173 0.0031550077430336073
733 0.0025245602168328034 0.004220441880095207 -0.0027259818921578868
900 0.008984652588765294 -0.01975569088041102 -0.013278884070453079
409 -0.0031105206283806885 -0.0046850538220678285 0.0017438439004431986
164 0.003824027667750891 0.0033710111053577977 0.016337172214936743
960 -0.006039957705782586 -0.01071280948673211 -0.016417262026773825
1090 0.002669520376159361 -0.0009482280451850196 0.007101434932423799
1151 0.002039230793488677 -0.006780217854795529 0.009887065386638007
1315 -0.006521977949586718 0.005496309233035693 0.0006768495307975229
1667 0.01848767910730963 9.843669314583954e-05 0.006761868365321054
2119 0.008892764973896773 0.002662374295804268 0.0010750871759394843
1386 0.002060623647794247 0.00857977333557979 0.014125646827036967
1574 -0.014505836095328309 0.015234851816275225 -0.009269180644136144
2325 -0.0019458368041676299 0.0024667533718494596 0.002520623792349928
2120 0.017493228548688025 0.011509464150097369 -0.013680029043829879
449 0.0020056611059561446 -0.007906471999499834 0.007700013443815035
1666 -0.0015836402498822307 0.00935155912503877 -0.0012148492599973748
1347 0.005482716684177321 -0.008782211776084051 -0.019572209435141895
150 -4.090087865962599e-05 -0.0030889495224536794 -0.0007274106662839685
2336 0.0180599492082476 -0.011392403029751239 -0.018373092564240894
18 0.006169053144337713 -0.009034801646508729 0.0031743616440233977
1835 -0.002946851788899293 0.00493490406954484 0.009782163181532027
2373 -0.010176183140188045 0.0018865303746428976 -0.005597171622622076
1346 -0.004431138556053873 0.010878297432179744 0.00910763296099573
1856 -0.01489088846576329 0.019203849108250636 -0.003206307039541427
1377 0.005884013597679599 -0.022250267941093995 0.0030585289497118634
35 0.0003771053869534847 -0.002864746436520798 -0.006857380124548512
358 -0.008693952572237503 -0.00017835082883171203 0.004622392889265923
812 0.028805218851617156 -0.015180987233043631 0.017658420027113153
1887 -0.023197133282141697 0.007695477995003241 -0.017278637853154637
33 0.01655205127528894 -0.011367037716358396 -0.018311140562924263
360 -0.00046746924284291053 0.0025551155282827866 0.02620877090148191
1410 -0.026335455882336344 0.017834427920291447 0.003919223146963747
21 -0.024579602487174744 -0.0011318070355641583 -0.0036515277683096797
1017 -0.010050743313415109 -0.005305295383970132 -0.0041976153657806645
549 -0.0018500827489109403 0.005013274978304181 -0.0021727337194808165
1375 -0.0019437737327852279 0.002548968106246517 0.0008007814482739963
741 0.010833308822200577 -0.02252195746245426 0.00243436224718072
1704 0.011194858540013255 0.021135308052180307 -0.014770297919915352
1408 -0.007811756554124164 0.0053148397166796245 0.006344831350185929
19 -0.007034232477495026 -0.0010382592687879 0.00254340644522581
1855 -0.002513487477915601 -0.0005014337516470313 -0.0012721133419190624
1703 0.011492543812430457 -0.013909414505266565 0.001886555911259403
1177 -0.006481017430997142 0.003378687218874547 0.002301906011553276
1152 -0.004453555950564539 -0.002654461265272991 -0.008232961345010316
1111 -0.004234256189721045 0.006645892587117722 0.003132462179595067
2113 0.001896950904111967 -0.0006023843458790732 -0.014586985603916941
2031 0.002119173770189023 0.005801586184808353 0.008492281345771003
864 -0.010909609038657156 0.004039458683310469 0.00849351821802671
899 0.007339007424371882 -0.0019789668364808915 0.0075635094693145225
1962 -0.005401041181031717 -0.004270666809610704 -0.0019566147621844425
1882 0.0076259555702560934 -0.0007908183067521049 0.002798742733730469
1321 0.007866260998335553 -0.001150829979093922 0.0015821922273860358
1952 -0.006038149001112644 0.0074628510554640365 -0.00770644927881516
2098 -0.0012545735626011583 -0.0021288314715614542 0.002156761141774402
1891 -0.005851581524619111 -0.00659695544144205 -0.004753500634602318
735 0.003806853760633066 0.005274784763996332 0.003838022336948453
20 -0.010839039546031399 0.016155528906616465 0.010285319923685204
3 0.004888013602082255 -0.014200780974705195 0.007882898666692575
267 -0.008724223430103204 -0.00299470666206881 -0.0027542945083842262
2008 -0.007517117166646381 0.003627844411911854 -0.0047824610247415
1361 -0.027387565466995282 -0.026306213955945307 -0.012983662032839363
1409 -0.01816710587616922 -0.004836679610684819 0.028861959482218105
2058 0.006524757538070326 -0.01201608472457326 -0.009919602709466964
448 0.005012976800688118 0.002277885175956832 -0.0007798426949442221
2201 0.0016410079132886891 0.0011580660562357176 0.015024622514949763
148 -0.0026815029407831585 -0.0036956204461794677 -0.000698325063370631
1575 0.017896841355478036 0.004838844916659431 -0.013072453661937527
1214 -0.0222102453283781 0.013180072696057395 0.004623040336623246
1219 0.0046974859134296405 -0.0034144817487184423 -2.0508186547268702e-05
1912 0.0018869010111733269 0.005412735407373674 -0.0027367582876502974
1242 0.001833237431164688 -0.00614321824674754 -0.006518385788091892
716 0.013953226993867317 0.0117318471388355 0.0141585004077401
784 0.005182268669629904 0.001430798532553856 0.00023091046370837492
1975 -0.001896546215192184 0.00017520891522920603 0.0020572276606261597
966 0.01239108629266785 -0.015153109742159424 -0.007519507695705408
34 0.001710717481060418 0.003265570124536968 -0.003793187058208139
988 -0.010752280739698842 0.0014421185439566569 -0.004365432006866556
411 -0.01889921205145449 0.0017059738478637297 4.659265907456256e-05
2323 0.001242337304748256 -0.0007440770427038578 -0.0006712746594746075
1150 0.0013448180145144396 -0.006494436245934738 0.006262454195428574
1016 -0.016706731513769092 0.018562635005140972 0.010969439412873108
1922 -0.002048628784243451 0.005162117985644844 -0.0016934616132691523
125 -0.005814884311079742 0.013125492540667558 -0.010268281458146265
52 -0.0007444983783260982 0.002214049444777932 0.002728402935986874
700 0.00985215418223288 -0.004497743818067727 0.00020934954695990595
2143 0.001247357336761139 0.00543138742149889 -0.0038545034574035803
2054 0.006617700482256397 -0.004626052630981102 -0.014055511400098765
2023 -0.002193126344116365 0.00031740398604140457 0.0030632154426933076
740 -0.011229471958305651 0.008024568229522447 0.0020369422075904356
582 -0.0020867479443987783 0.0040293744572607185 -0.005340202036616307
1521 0.007419272401806878 -0.01375857505355574 0.006168392434936616
516 -0.02991062909948042 0.018217186854698527 0.037781575461087916
1893 -0.006899559366372595 -0.011041012243591717 0.0034051066779311025
1584 0.005249489438938685 0.011658019211711656 -0.0032805092419117255
54 0.0038885888824692484 -0.010426628811179854 -0.021034967313639397
2055 -0.007399965411551344 -0.003221465228083586 -0.0046977077638318075
91 -0.001335219366073129 -0.0007224571908286327 -0.007065778630527762
811 -0.0009929518281534668 -0.001415046311212109 0.00857888270605974
1865 0.002041953274758021 -0.0005454767478052637 -0.017793939935807405
2145 0.0021079779309867513 -0.00558959158488655 0.010105537649281892
1883 0.010334503721556332 -0.014751742611286088 -0.01564496447908258
902 -0.012322040041135044 0.000915728916503525 0.0003710399099156768
138 0.017462434516202403 -0.011339312185822436 0.008460312522895018
813 0.007369538547495867 0.006935900122247666 0.012386666499101976
898 -0.002102923973713958 -0.006675198249562793 0.005710406966956309
648 -0.003780753743161803 -0.0034996906337423665 -0.014072484795010663
2159 -0.0024885461832636 -0.01950598973147905 -0.009925420614600038
1562 0.0012976710744559239 0.030433998455069725 0.005098705660464543
641 0.013233095731217823 0.0008020357921536361 0.007025852149889645
2073 0.015477953175650712 0.01772875895273178 -0.007036310970450472
714 0.009645410469335166 -0.00879488069799091 -0.010325487023770953
393 0.00273159476460154 -0.0016398425869967915 0.011018302760552061
199 -0.004241219582451826 -0.0024417772820495764 -0.0017625569256088575
2189 0.0015582380181956167 -0.0046659838214814855 -0.011645877150551142
1851 -0.005283319023644711 -0.0039102866999856925 -0.008378850624775181
646 0.0014223128055007943 0.004874170954061511 0.0012475576387405382
113 0.015531992678642813 -0.015483819281170588 -0.011209461236110416
78 0.017855169671166484 -0.004325287291652046 -0.019854939496281275
718 -0.005458253747789967 0.0005403293814701489 -0.00020045289525953924
1908 0.015071950065698113 -0.014730132247590018 -0.0043297333362788785
2354 -0.006245053344223084 -0.021641252502484304 0.03687563301121669
962 0.02053116794134034 -0.026920203901168577 0.014225093566238451
1749 0.001707124301474658 -0.01733877095056366 0.025294585328910223
489 -0.016625173262186047 -0.011232407604926985 0.0049111563631005755
875 -0.004769806713699993 0.013048239633162451 -0.006504269710930022
1593 -0.015359492247326492 0.000674307843797757 -0.014172408384146226
1886 -0.003841380328643869 0.005000018888851081 -0.00994372988853134
392 0.010538025075595444 -0.0056774044648879056 0.009923279321679222
1801 0.004006094889399477 0.0029963346821173633 0.000983118574806989
1211 -0.01103194491447609 -0.014100249653873709 -0.0064755525848322415
200 -0.019031691009328285 -0.007995855897326546 0.0024478990516701078
916 -0.0010211052201825105 0.0012293702431330558 -0.0015089529245092214
758 -4.970381950172337e-05 -0.019075321225939353 0.006849692087395311
128 0.01626148007149866 0.013256204528309862 0.006501234767636428
647 0.0022590339441666456 0.009293150098950057 0.012021908617596729
1718 0.0070025528307565334 -0.010261662237121213 -0.004534807455657003
2116 -0.0024237697917101598 -0.0025165377418514866 0.0015596129082587305
2260 0.0037426839290841947 -0.0030392954112065 0.000631355699454518
777 -0.02285786255324215 -0.005308119878515293 0.0019241774893374588
96 0.0066408763768096 -0.013659911414804046 0.004742180388054751
2081 0.0315004299682497 -0.0026265934815070256 -0.0004602364369390711
930 0.0028683982422898643 0.01410992548235456 -0.016966714001242514
1909 0.004744883994701941 -0.002074943966769793 -0.003606124260985282
535 0.0010906549537418296 -0.00677787425356575 -0.0010488341387271318
114 0.007273573722211258 0.002050540084627523 0.01711549637546602
2188 -0.004677327314734093 -0.004892465153775716 0.0002667433166525313
1981 -0.003744773804464608 -0.0031947292461126627 0.002272777317418528
1748 0.0062338771041555024 0.007349656122877926 -0.010095442306379156
1895 0.00904658155975145 -0.002146874971111917 0.0248861691649059
261 0.003785112401073154 -0.0016223368548587173 -0.009545596253994511
337 0.003938501342220511 0.008357323830292208 0.0032452937470892275
1116 -0.004605709022978987 -0.0024696613114285246 0.00043038074297456925
1137 0.0023115100410926533 0.03626034434537775 0.028079751956175295
472 -0.0031098050517487695 0.0037056018907092787 -0.0014852018402767486
1063 -0.0021467493127947873 0.004035434516046976 -0.002814437706018126
726 -0.003752608010966903 -0.00605904623955902 -0.0007905841081703155
109 0.002454509927057558 -0.007284798548174952 -0.003783666764534522
361 0.004520317742129706 -0.002978991579322811 -0.0020051931940476856
1910 -0.006738318999905061 -0.0031938748889618284 0.007793254607123261
2262 0.017610541590360174 -0.006584684221567261 -0.016823880218112982
1559 0.026441993692693778 0.021989720805773747 0.012128425067339932
474 0.0006991763601487739 0.010995283429174723 -0.002497369304336233
2355 0.02196135518932159 -0.013514565827858364 0.013101335551657933
652 0.000499062673402838 -0.005018973534904321 0.000622804901670708
1779 0.008362481427650911 0.003139276489537485 0.004281102574211978
338 0.006167158197521354 0.0037743113103211974 0.001191504353709213
1072 0.003099412045377339 -0.0028028153408776115 0.004955094213282493
1558 0.0013595085341648419 -0.0026541379251834164 -0.0006107110654541013
1680 0.007932096630057799 0.016187147992883934 0.0012053034145348622
2219 -0.020568843138066034 0.0026934157495464126 0.01540860986282495
1578 0.009842966403848514 -0.011672568248030006 0.010811881714860786
917 0.0026638216346660058 -0.00011290889537690795 -0.017679900858692296
1576 0.00047878360888694926 -0.003572560775218932 0.0015203203273477968
918 -0.014913962068571153 0.0032893901902464255 0.01644521576336468
1364 0.005003725700630879 0.0014546276061290638 -0.0003442787387183413
874 0.007085023160801634 0.002649454532959444 -0.0035118297946686067
1778 -0.004425308367687416 0.024224960447300978 -0.0091490595829549
2122 -0.00019036351567022972 -0.001594356121052894 0.0024273281720759384
1114 0.0009290850776191939 -0.006335709058543305 -0.0011412266275981325
1923 -0.004059162369765064 -0.0007294249984352115 -0.004802591571982354
1849 -0.00014756068282545322 -0.001941389301790312 0.0018264340093298644
720 -0.00012644411447972992 0.00398213647273964 0.013727357022912902
1436 -0.007616145582201933 0.009269425456769885 -0.0037244556532232843
1210 -0.0010990747475508567 -0.0053904550064869244 0.008564047394353342
810 0.002605826479154151 0.01970532898257989 0.010743199542553315
260 -0.014531654991671528 0.00906184521682979 0.005520159298863301
1365 0.004361373466536302 0.002975068489894902 0.008841960238642189
1463 0.011024919544546107 -0.0013336868201205187 0.004958857694806396
1721 -0.007903925469463783 -0.0052219819975572014 -0.011727339611564892
29 -0.009103954616733414 0.019236320575527363 0.006551938367651338
418 -0.003081676938645811 0.005528548903075309 -0.0016422243193653717
2313 -0.0016859771045109146 -0.0034785784571078355 0.011051351582027157
1450 -0.002998987538564753 -2.5186485214753395e-05 0.002899286004566526
603 -0.016292106145465897 -0.014614213264988121 -0.001994694053125667
847 -0.0006033338400473292 0.00029552531276125606 -0.003767409575928604
602 0.018227406578456628 -0.008677654645251878 -0.005308151678371988
685 0.003079645657095523 -0.004012462436750149 0.00506176328846247
452 0.001400009141364161 -0.010078943696315701 -0.02127769208173518
929 -0.015391701044422368 -0.012227654129045125 -0.020522025869748335
2217 -0.007270198215524919 -0.024427915017206675 -0.015253931626981918
661 -0.0001984502708338316 -0.0013992328043453445 0.000257779008489562
2353 0.0027330063289933673 -0.0009282308847635197 0.0016319771257635978
1850 -0.0024989117383606894 -0.003652582204056754 -0.00537594811236559
1373 0.004786623319563079 0.008166448688414606 0.002255383280419632
2080 -0.0012086765184860008 0.002413145311893347 -0.004451335045455383
2118 0.008605812073012368 0.007061605191461335 -0.0141680362033664
963 -0.003384252459668221 0.005919915409711595 0.002167284220491856
1067 0.0032044774181243982 -0.0016295560499434538 0.007172703838142813
1358 -0.014348306677909926 0.004649183773894679 0.007613599020969393
1802 0.006546084941037657 -1.743290857334108e-05 -0.0010962055220283128
304 0.004702041672740495 0.004548672341231884 -0.00297738242700594
420 -0.0014767029251691727 -0.011759675244744805 0.010951473122285732
363 0.01708262643114794 -0.0076773601294700304 0.004710175385206561
2374 0.0011177280023905761 0.004546219409698062 0.002188711769048667
2314 0.002483539563008733 -0.00011232157258117584 -0.005941084876437013
77 0.0027360463609313597 -0.0039169924896964295 0.03155410603004071
129 -0.01769242005464822 -0.009398149185093373 -0.00894797800765204
28 -0.007674586771049275 -0.00015615711540566157 -0.0020366227608359854
1591 -0.0008459057278007409 -0.003626857421819892 0.0031997055246520503
2352 0.0006531927546974231 0.004447865274318823 0.0012010251252526354
2242 0.0021882636997699293 0.0003697205414244423 -0.0020265110425867626
1212 -0.009725199438375737 0.013888931736007498 0.009288516189168036
789 -0.014460899822659929 -0.006146637773695484 0.0023565943044332785
1036 0.005007398126185999 -0.00012795958558360697 0.005167246785916047
76 0.000295778046962839 -0.0019108012382283727 -0.001522434383177655
1363 0.004461313208276396 0.0021863062535510446 0.006514457805293493
473 0.005101546143285722 0.004780616544418316 0.011712339694648322
1437 0.005104787085656557 -0.023653188935176865 0.006668154454657326
2312 -0.0008397063466625192 0.010316589781705205 -0.013376660839888905
809 -0.005720655856058423 -0.005216159611292793 -0.01677853939670439
654 0.008609243419168168 -0.0030915068315230804 0.0024317330400460938
1894 0.003319050186301865 -0.0031698947362381225 0.0029859000602461953
1086 -0.005757758107966269 0.01642068497767587 0.0048770284320298
451 -0.0007181957484885357 0.0015167754342069978 -0.0011585408789508108
339 -0.0025650208087503205 0.008749831055801275 0.006269958801388488
1136 -0.019582863318950674 0.006550230436018358 -0.008758407129400916
1978 -0.002644374048889143 0.0032234501565043664 0.0005987779143357707
1803 -0.014468725044743657 -0.0011146357727307246 -0.01658811653393495
1074 -0.011798169983709899 -0.002581166742308827 0.01523145287084037
1226 -0.0015888947530007334 -0.0014671290179006937 -0.03251641418239318
989 -0.008425952123237958 0.008853113117561331 -0.004178791551257123
1549 -0.002380268273483368 0.0036610270887036315 -0.0010123588072150991
111 0.011019309593644553 -0.012841787535242805 -0.015456927810034061
1038 0.008958521649787877 0.0011822563776096016 0.008459151506032417
2086 0.0017615266390788359 0.0024627731270658463 -0.0020642249999304153
1983 -0.006844691414855264 0.002062735916386021 0.022003716994539072
1982 -0.015557273334113803 0.019366776054478126 -0.004829270802485797
536 0.01011883639957945 -0.0008438435234662262 -0.008797893886387805
1907 -0.019296767091513716 0.0005256333930832245 0.0023436065065263402
2136 0.026633344315596958 0.018218292035847614 0.0013094997320825172
362 -0.014716383494383868 0.011177374122710946 -0.011512596801794329
2088 0.016493998825877657 -0.013281300030950509 0.010587757996567474
201 0.0005656494093099701 0.00038918179457698217 -0.00025474293998576866
2165 -0.003422983633173823 0.003910180267122098 0.018849460085170806
94 0.00020192584093997146 0.002338183618491392 -0.003943224126386414
713 -0.011685276390223443 0.0037938663258434784 -0.002752301104937667
712 0.004668462633788245 0.0023721799513668172 0.0008116849775358683
2124 0.0030783465922999097 0.004811219762234759 -0.0028788807003653073
110 0.0018616462872176945 -0.012575489070063225 0.00022334386330014728
2158 -0.003015407776057303 0.0008571000426378031 -0.005334328998858156
910 -0.0008124225939765895 0.0007839550625632367 0.0017777842572597863
848 -0.011452562352149045 -0.023611289797146155 0.005026986895990476
829 0.0017872917180501656 7.191147249207428e-05 0.001135946517178766
1980 0.0038913711591097937 0.02053378120477596 0.01964455563509728
970 -0.0025304224348508624 -0.0007791465562167354 0.0037439189830002885
234 -0.00045962199728050385 0.0015595057914562895 -0.005633085789888707
316 -0.0024915157445990063 0.0035566508394280303 -0.002757214948839435
317 0.013856397135071516 -0.007136847757989905 -0.005657053873519171
2243 -0.012875722104642663 0.0011875583438516071 0.0007763342849127457
1906 0.0033853873545726123 0.0021407225285647287 -0.0033038622986442004
1115 -0.03036618327464382 0.0011094004620821655 0.001046396007836822
2315 0.014987906274096583 0.002768042811185366 -0.01746039059185169
928 -0.004131942649303906 -0.002284303681189156 -0.006914006688418457
1451 0.0088152598864674 -0.011919248219552212 -0.0212907231562647
972 -0.012364922494188385 -0.000807365832944649 -0.004937784127322981
1138 -0.0011563252355960977 -0.005720334228982771 -0.0069776565696933555
1065 -0.009214623920221073 -0.0004971324640947902 -0.009271765370770969
259 0.002462250938482965 -0.0003375033212001227 0.0004605007708135685
2167 0.006684868036786623 -0.002633117809323666 0.004417970045418235
642 -0.018666523933110347 -0.005245189323689999 0.0038053719128102533
971 0.008470312902143519 0.004740012926389191 0.01314782501919848
2166 -0.0007899868739328829 0.00531264450214045 -0.005508514292243667
2350 -0.0019431220215859796 0.002461351786113558 0.0003205937456972786
2173 0.0002711129696397414 0.002592421688858237 -0.004133951991765899
2135 0.016078819143597545 0.01745036508764721 -0.008274921579367153
1793 0.007535604163006142 -0.010532871326229957 -0.007586851018740367
1551 -0.0003704259061838053 0.004548480345250227 -0.0009748147710811707
1717 -0.00012208415531266418 -0.0016978223615955748 0.004258694416989261
608 0.012752697751990892 0.002748288282782814 -0.016043120449572804
1720 0.004510266491933496 0.0008997210731410741 -0.007330439046532333
662 -0.002068261952376614 -0.00623563275339254 -0.012422068831815448
1777 -0.0022429426295051983 0.003179437606785261 -0.0033522765183040646
759 0.002647378880789552 0.011432797353768084 -0.013856394396966527
539 -0.0051930236657439 -0.011206135272672927 0.008794651842837786
830 0.003562993904924262 -0.004252631084570254 -8.683422202331719e-05
961 0.002449636212455932 -0.0015887961766107312 0.0049560199735719755
1084 0.0011816251709834726 0.0038872513205854687 -0.002088825754210053
849 0.013233628287194304 -0.00188513442795429 0.009304380194652824
305 0.004168702436906351 -0.0043654989265122564 -0.009886609857418365
419 -0.01051652153244062 0.012914007429033796 -0.010575045564568761
1719 -0.000842799000705052 0.0017822687036204055 0.0044984994721829746
640 0.0009640657231931535 -0.00622715193890211 -0.0050860857486325585
1359 -0.006211793548014176 -0.002609830792081457 0.000768131913516526
174 0.008915524056774395 -0.010540291057067105 0.000272918020478544
2311 -0.001548410760793018 0.000878495148882774 0.0030010669406396006
653 0.002164640678090905 0.007856697186681198 -0.007465715792776463
306 0.013810264359287953 0.013943202274230238 -0.004448280527882048
1307 -0.01753592728549034 -0.008573684458577948 -0.0014959633806286214
775 -0.0024081799950284605 0.00499799784255218 -1.4737173388876725e-05
831 0.0046954185126879475 0.00019923038186377753 0.006666998925531931
2168 -0.0157578963239252 -0.008281517999731446 0.014094577557312332
1630 -0.0006684122939750111 0.003309290579672027 0.007030190653697702
601 0.0033516068600727583 0.0021657112219398535 0.0020107985550927867
2087 0.0020802650717885148 0.00890742677037783 0.0002272729593840894
1993 0.0004518661148616341 0.0015757132418908787 -0.0038898882269836595
1560 0.017837623578567528 -0.0176506497342766 0.017938568830384943
1550 0.0009634568172690935 0.0031907516200532842 -0.000772228743662189
1435 -0.0024909871152702895 -0.005190372064404479 0.0015672496689524895
1397 -0.011623636986472646 0.005246321712425701 -0.008712243849703975
1064 0.006163103850532701 0.008385369712674859 -0.004264271495236695
1306 0.0024124588285784052 7.389015932511991e-05 -0.0002103467293272176
788 0.021881191877495085 -0.01223553437783164 0.0037659944368247083
1308 0.006003534870621042 0.0005299531478479562 -0.004426280257385125
1073 0.008854813626061147 -0.0023738616636056436 0.0010872522731667287
808 0.005257933692505177 -0.0028207713253768584 0.00507929236494989
787 0.0032687470099246395 0.00022896898248914426 0.005980628428695019
1313 0.01105233457804432 0.015616193167034617 -0.005090222827186035
1374 -0.015417371447796894 -0.013566371223668725 0.001345930365673135
2082 0.014090873530509064 0.00011386575060661321 -0.0021685781607419423
1747 -0.0008265027987004619 -0.002965727478770431 -0.003461145191477723
1085 0.011171052903391676 0.006524417307143879 -0.002613750505943153
112 -0.0005426145907772333 -0.009400281170628215 -0.0004978034614801538
2213 0.0030283932682365166 -0.008312065777629498 -5.31545435978497e-05
453 -0.02141984177723775 0.0029498763715783034 -0.013424660064770996
1497 -0.00835841592900283 -0.018523476129085573 0.007932949661354907
1372 0.0036496663851534905 -0.005528575096072255 -0.0029306735659582394
2169 0.010164090371625224 -0.014102214492577807 0.003001094582300829
1896 -0.014958496506494398 0.006596870779869708 0.004423802343566453
1312 -0.002155482030149321 0.004451879750150506 -0.007302899577268341
2351 -0.002815870613740213 0.0033169423019386727 -0.00020678289491952805
2164 -0.001977595994338083 -0.009122398272454441 0.005452564407772026
1139 -0.0006306741989495605 -0.005121417487166697 -0.008219523718152004
876 -0.0029138463222382126 0.012891463567182116 -0.006126133611764567
1722 0.015320351217938436 -0.010625356352588683 -0.011516713504143933
1979 -0.014389201868934916 -0.0046937165310005045 0.009476565607191505
2134 -0.00290318836365472 0.003236574865249387 0.005518975630242229
1496 0.02146604933549955 0.002986594231119036 -0.007609987740250474
351 0.002907278507329189 -0.011861019799039304 0.006421972926184703
2190 -0.004342732984814239 -0.009434592403364674 0.00702157356223913
1911 -0.014803877705405475 -0.007298575669348589 0.005654840506560164
2244 -0.0021792145708710783 -0.004845093786042611 0.006561107605123643
1355 -0.007548310805984466 -0.008600413262211282 -0.012733999977074407
318 -0.008497757793516542 0.007553948198608521 -0.020141803510533872
1792 0.001772661024847437 -0.004576554385048692 -0.00081201509464766
719 -0.008283639140245188 -0.013869283949433582 -0.0006092549135770654
1994 0.018527485268462773 -0.00904081701750569 0.010189610431136779
1794 -0.011703394307629901 0.01073918308730036 0.009420521832893233
70 -0.0018683387290060055 0.006551585848937272 0.0005900843542968283
1914 -0.00899712838698053 0.007176415133935733 0.0005838662187143154
2160 -0.011465155373498263 -0.006517730100130959 0.0021067502999343843
127 0.007894796890734974 -0.002722530401741605 0.003120712780614329
1464 -0.009157627497018395 -0.006258294679266398 -0.003352881421610024
2261 0.00944649527322706 -0.02201635269927577 0.009660625254854031
1135 -0.0021094312330453635 0.00020899825999853077 0.0023992447351270157
30 0.0074395665725984625 0.003923561145341809 -0.011270953335033484
2025 0.009535641536797068 -0.006138091329796359 0.017640624166797115
537 0.02105257463598811 0.009939688551311911 0.0049567981383618984
1452 0.00633880971142648 -0.03124388190194558 0.01936975777371734
95 -0.012473369377757308 0.0031533846247743754 -0.006777561958951812
1592 -0.0002488387709505506 0.005775632009524656 0.005720379901517722
607 0.005776524931576634 -0.004690841454430083 -0.0038679938879521898
1632 0.03039393222063299 -0.022676489743568094 -0.011858550122858521
1357 -0.008660865598585744 -0.002517412465004809 0.0013885009982022767
1051 -0.003866162408018832 -0.001157572899842851 -0.0042009563977453215
1668 -0.0035729743857035134 0.012836168771722127 -0.006117277195691515
1140 -0.014791998725409896 -0.005137944852419091 -0.009706646643120714
391 0.001495173199146334 0.003790892658423551 -0.0034814545024081617
1577 0.02738175697120005 0.0013821891017743318 -0.007192171469256175
757 0.00028089568627428623 -0.003317914364507946 0.006616089047099198
1462 -0.0016480798163289515 -0.0025049002603083938 0.0011418338958705384
1495 0.0026638374837976058 -0.0029328291052739385 -0.006720455324594925
912 0.007476182800425117 0.009201496631637256 -0.002207967059973976
1995 -0.007461116292379008 -0.0008605273142423127 -0.02431484103409946
1314 0.0016341666705270254 0.0072378263723557185 -0.0004358819485739073
609 -0.008136563167128272 -0.007110818437548314 -0.009693920116598689
776 -0.006704534346037373 0.03073145204347347 -0.00203706845060257
663 0.013165080330526517 -0.00741434406776368 -0.00247836017900841
1631 -0.006355589870130993 0.0067888934830273515 0.016497279874489106
488 0.00513504238375665 0.0010196271481401169 0.010391577976105296
2117 -0.01715637597431569 -0.016825285624291968 -0.012283846138573331
71 -0.016465138775799852 -0.0008429104599035341 0.005510461228587551
1961 -0.0014445818421588374 0.008518545260722434 0.017127351488267245
2215 -0.0033373372403599734 0.0012300686132969303 -0.0028522905019832704
2212 -0.002886212538124068 -0.005291901452713256 9.95582133303401e-05
2175 -0.0035630902722699545 0.0072081343351202655 0.001839773481773501
1052 0.004547373306855665 0.0015627088521315174 -0.0038078057849923186
2375 -0.015421076165109028 0.02781654873680891 0.019552961429889697
2024 0.007182105760549127 0.013867070807038803 0.004996446683973593
1186 -0.0018294834700251954 -0.0059559497145176615 -0.0012095366953681504
462 0.019453669928897337 0.02670248852964355 -0.009055415247228927
2139 0.0030395634207730986 -0.007885198722636154 -0.002603267653046047
131 0.0027342997399133887 -0.015128772680906937 0.009301153736134368
2264 0.011696205569071874 0.0037318280414718255 0.017461755342184183
880 0.006770534826004485 0.0012668041109911987 -0.001168243952688077
2263 -0.0030822420715658234 0.0004862667649555254 0.006326948248086425
1711 -0.003578011532358578 0.006128051577783101 -0.0041319956812386135
2128 0.0009987072348705006 -0.004726900740104405 0.0026020145988612724
1986 -0.012201527319247011 -0.0014973941151777666 -0.00050673447651898
273 0.014070011246450933 0.014392046454451447 0.002623060034729544
1453 0.000818315154123727 0.0006922968129783117 0.01042046194864115
1169 0.007647399830577246 0.016389522739068928 -0.022541624388037085
1251 -0.0004993143759026944 0.00045650981727299295 0.0012242530518968586
655 0.002811441010826442 -0.0032623455435392443 -0.0029080755528005033
2072 0.007273454952325419 -0.023313521586149535 -0.0019201930830304343
1988 -0.0033450871721243777 0.00735836389851842 0.007816475145050511
1712 0.01348676417614621 0.008612613817755766 -0.02336496337475087
1813 -0.002216655751374439 0.0028299457806540713 -0.003476164343411441
1403 0.006866616428289662 0.0017367926002916224 0.013357197324266367
1898 0.0013166053947331207 0.025826963880591948 -0.010764394436925805
1776 -0.006017689677047953 0.0039425588452937955 0.006279367881928598
208 -0.0030319975571150327 -0.0010150662500049157 -0.0025643441970540568
1336 0.003937964209792698 0.0015767281767900866 -0.004597177957947331
656 -0.047049998799519314 -0.01238271300625417 -0.006315790479604573
678 -0.005990484743950181 0.010420785840453478 0.006988685541538458
755 0.0021589034844357825 -0.0007877386488867848 0.004638378914488426
1673 -0.0008612732485879482 0.001680651513641079 -0.010931157095600684
977 0.003141591408259539 0.0004128275995536583 -4.9528272971581744e-05
558 -0.006000021595084412 -0.004936447596847179 -0.014633301629570205
183 -0.004760959954603019 -0.0011459716538455133 0.0004069979998018861
1970 -0.0022361981255152414 0.004191229125882921 0.004125654724677222
1615 0.0012729135214680407 -0.002788479071768201 0.0011472694633801145
210 -0.007653774969158285 -0.001947196061533332 0.00636781513497748
2107 -0.002971516370971353 -0.003239861068271301 -0.0007070333336958749
2063 -0.0022813296929038236 0.006148451141013724 -0.0016443866934056103
1769 0.011509598884357318 -0.008131326362682108 0.008707546763180108
1348 0.010229993745041572 0.0011128924168021714 -0.004966519164487642
1250 0.015319697401797033 0.044235601787857404 -0.012944585760144924
108 0.0016611445862240377 -0.001731002457959986 0.006257842216963576
1829 0.009983268157712695 -0.003185690329409255 0.00120004496263139
1847 -0.01461615513105088 -0.02615586713827034 0.0015635448539726524
2186 0.006445231922790016 0.0020976793029960626 0.02410667595667374
2222 -0.013292907538291704 -0.003498964512741079 -0.010466511671553689
1273 -0.0029635214845340754 -0.0011073562743367325 0.001509831600361754
669 0.00139614696418585 0.022375679190989796 -0.027130688001230766
372 -0.005582681485533229 0.00620365870684298 -0.0039933831853659
1299 -0.0011378897543220699 -0.002899517471114141 0.0036545688642979353
38 0.00021911496262930362 -0.006601551509029277 -0.00415511245299927
2042 0.00029424948833133284 0.006796057543433017 -0.0011474859080672197
839 0.011090373933290352 0.006337793559934773 0.005459890188111382
1349 -0.011331460727901295 -0.006815134541414678 0.0030081590158097197
868 -0.0017991063322972875 -0.0027222704463637643 9.613744055206505e-05
634 -0.004428312238251415 -0.0007703153009230236 0.005361785022656737
557 0.002439006751736588 0.012408042892751417 -0.005824802849812388
1455 0.0069017143949434865 -0.007388124930043049 0.007508323377134679
1442 0.0031357323268314313 0.011001742275930112 0.004064888651632445
717 0.00022476068722129166 -0.0010921832157179572 -0.006695062886611184
1830 0.005312900703392147 0.0033358175224264784 0.009912329767967474
395 0.01160451243066672 -0.019653652974879435 0.0013369751182393589
2286 -0.00931963667238265 0.01954056693503613 0.005996523720249619
2137 -0.004152050721090512 -0.0020725975763590614 -0.005678411676207887
1331 -0.003614391473628967 -0.007264789250493221 0.00988423123867178
553 -0.002685889846054703 0.0029105125023123593 0.006343215466749288
765 -0.023652121994255655 1.5624898184000325e-05 0.003427960009174643
1569 -0.0029415005019341966 -0.0024531043238577295 0.006896450926436384
616 -0.0005567386257635573 -0.00784290559803892 -0.00025240297632667347
2127 -0.013713193314520887 0.021207515851031727 0.013702821853620435
37 -0.007042651009505945 -0.0025308134111934693 -0.002391250925230162
2129 -0.009935944856844483 -0.005387027685787128 -0.023146246184635826
1504 0.008859746498984395 -8.784350573030227e-05 0.005533111743048412
2020 -0.0020039189749211737 0.0005966955610527295 0.001234584438748937
2022 0.00023913599508614504 0.014154827078586637 -0.004301422202639397
2138 -0.007539599678663397 0.0017847753824109553 -0.008386797204144616
2271 -0.009277205087125392 0.0023121452249031606 0.007733838852930388
676 -0.0073318553687874285 -0.0007310831948590345 0.003579496231195052
2269 -0.0017199044371099665 -0.0005210507438725196 -0.0022342668276421865
1815 -0.010557525571190999 0.011439849020026283 -0.003825327816011422
512 -0.0005613507905796548 0.006677865643719445 -0.017631381846377407
1745 -0.0011831306739303294 -0.004397418672614129 0.009489553035683588
1586 0.0009086732791470961 -0.005306668718884029 -0.0003124355623280305
1401 0.0003102421005475944 -0.01869448202650369 0.0031277395952053503
869 0.0003103896409761431 -0.007911675347978823 0.003759228957015422
106 0.0022425743138205115 -0.0042634153546615506 0.0060880568895201785
1828 0.005843861980318566 0.0036266434518957115 0.006219715151010458
881 0.007577516488751764 -0.004167680809929449 0.0031848275455156685
1298 -0.0005390173089879895 -0.003223115834285617 -0.006943786123838768
1985 0.013963486843400012 0.0007994089573580635 -0.009492599839352012
768 0.0005623673299317643 -0.008051640250694719 0.0071578466832248
1297 -0.00029272737778236773 -0.003657361967629879 -0.0012942124805603338
274 -0.010014737739454167 -0.003135563064674724 0.0010555969254927775
1209 -0.0016583210993353196 0.006186727852762025 -0.004408110171384069
511 -0.002699269891086193 0.004398007009800159 0.006711805228556888
978 0.003589654922726181 0.001188859903721723 0.006276380404550544
618 0.01657645512179869 -0.015543248460480821 -0.010060989960072809
2280 0.0012587099409349027 0.0024973478203900766 -0.006846087232081386
2209 -0.0024769959623833658 0.003986214594262857 -0.0009935105289122163
2298 0.012050150720157173 0.0028641006788435687 -0.015732476904210608
2187 -0.0008694627114822591 0.0023502538250790295 0.0004405218895603482
399 -0.0055620219538042946 0.0032537328970334957 -0.006711374314820389
1672 -0.0031260933424017 0.009822933216219543 -0.010498458589635017
1765 0.002521962253478126 -0.0030137303962768126 -0.005928954583995999
1187 -0.013544816339103488 -0.01053986068807395 0.0020794969422703235
1948 0.004675952127391789 -0.005821050065494767 -0.004831904573120872
1987 0.003592121303920625 -0.0013190856890342995 0.003988947399541388
2258 -0.006144299018461383 -0.022763569893261566 0.004761654536249094
1207 -0.0016305659822761082 0.00316482644923471 0.0020746502454278394
1889 0.010387658122676927 -0.017208868757339606 -0.005554390074330555
1229 0.01795197061598599 -0.011199372368212987 0.02227927045441769
2035 -0.005731924460833904 -0.005201383623287875 0.008123907527210183
2185 -0.001834033515787114 -0.00032266017096933407 -0.006079614041478624
2032 0.00730046141501626 -0.012282599220023073 -0.0009161866994793334
636 -0.004483624337427847 -0.000478714411413537 0.001209169146689076
556 0.002088805765224183 -0.0011134293174835871 -0.003980540995263112
1674 -0.003286592348671923 0.011582901862351516 -0.010079579459679541
281 -0.01983247099721636 -0.010763428876105713 0.012002332045462555
1170 -0.017278683045385955 -0.0075297555035428445 0.006415223718906029
1568 -0.0037356772654849706 0.0024451330081963775 -0.0034976996089336547
870 -0.009576727234720767 0.003669321648197296 0.0064533644838040685
1443 -0.003455838978779318 -0.003672028066478197 0.0019540335788129828
1493 -0.004439015689485212 -0.003974266441579399 -0.01002846573948101
2049 0.02567089887443789 -0.008282567267484213 -0.005768667575630932
49 -0.0037583837497122755 -0.001379268791842732 0.00019021775295329144
1724 -0.0037642921015199867 0.005663266254867378 0.006747301766899261
545 0.009716802901860038 0.01930105268641362 -0.015943066917023935
2125 -3.2274498517049076e-05 0.004010312520316004 0.0044246408032545355
1079 0.020644759489712682 -0.023609431540194174 0.01609807995638194
394 -0.00011084882607957083 -0.00541651129995546 -0.0015079334056683133
766 -0.00117457785636163 -0.0010021579348949128 -0.0007544492272878817
2210 0.024164648014206945 -0.00535108171136513 -0.001696312070073858
1814 0.002253060216722339 -0.007351068432025383 0.010896315167729329
754 -0.004565883545109807 0.0002870150930110427 0.0016993571156511274
1274 -0.002944300725992258 -0.003127164717157543 0.002641293892477619
976 -0.005561579622926159 0.008621613997897053 0.01004828537766013
657 0.03677366098250335 -0.00802883875696713 -0.02343346173839159
1770 -0.02289979424168441 0.012228094619050599 0.0314455352081017
396 -0.001334344770326323 0.0014490238590189894 0.001547809467051899
668 0.015016043453080307 -0.009051424841722678 -0.0011645686326897473
667 -0.00446710233510556 0.006779731364428285 -0.0019677002850387267
1168 0.00045293686818464763 0.0013993944318246743 0.002352815627893138
756 -0.0029509801602463125 -0.0015184120599365672 -0.013847217271720965
1567 -0.001594267901769564 0.0027113752104483625 -0.0034487505321564287
282 0.017770806488918697 -0.01903027795291735 0.005931287271769057
1725 -0.006638535763959543 -0.006496211315644219 0.0065145041664188925
1767 -0.000845083732189696 0.011520848455543166 0.0050040914745626925
2223 -5.321797036901075e-05 0.011721585568962536 0.01207374444640572
2324 0.00024954739858121174 0.0011362269537282597 -0.003815394458020931
57 0.010943609692150658 0.0001092819867117015 -0.013555159523715273
41 -0.0012562912084740478 -0.0015700303862759852 -0.0034699010342190417
1620 -0.009753796985726731 0.00508267783720272 0.0027195063140528
40 -0.005589904428245781 -0.00027680016580682536 0.0060834268538500335
2265 -0.007457807596195052 -0.0005237629162018837 0.003169796179878793
2369 -0.006478088910342185 -0.0005315402539329641 0.0015955460687990476
1723 -0.0013927481903745938 -0.00035362692044272915 0.003796509669822758
1494 -0.019663926652163013 -0.010528549921009564 -0.026907551213968112
1899 0.0067503653034881395 -0.009536526570833325 0.011449795651968355
2043 -0.002239969332077267 -0.0055869984773079945 0.001100328370026908
2285 -0.0275085230588917 0.009767904604179195 0.003957397352327162
1744 0.001054713596292942 -6.564398572160592e-05 0.005948070441094257
767 0.008546872351110249 -0.025722447148815705 0.03105834967231892
2130 0.0005085162917855312 -0.004847837218672459 0.00046345404601588774
2076 -0.0167505648244405 0.019403286948536134 0.019153174047345442
764 0.008135533434602564 -0.006430248500001629 0.002593439196523293
763 -0.00551330990030348 -0.00020788759159693043 2.9873021146402473e-05
369 0.008732876810159561 0.010704009853258504 -0.02178072299430709
882 0.01230012373406383 0.0014223638754615887 -0.011750104621978908
2033 -0.0026638373130817364 -0.0020576352895118064 0.003810919125433874
2108 0.018653432805315225 0.0005806760791406132 -0.013800685177349798
275 -0.014005955596665062 -0.006871077981103438 -0.012351267695706202
2284 -0.0017885490064433764 0.0049771947806872404 -0.001219770822752971
1846 0.0010301215368797305 0.0005356449416034874 0.0016382606576036145
2257 -0.006623103751974854 -0.0007592184192145695 0.0026709475072195367
1969 0.0004574040265770785 -0.004584866805447581 0.003171673579673853
1404 -0.006332282915091358 -0.015567803547364594 0.011967438479869775
1206 0.0010369122978245674 -0.0030618790955897865 0.020407489976836658
1949 0.02582577998330379 -0.010456794299356694 -0.0032605580388345027
2041 -0.0024489744927429385 -0.000167664925400234 -0.001768577852334402
1205 0.004653154575838622 -0.003258800245181499 0.0023365056288337533
1788 0.015906731356615716 -0.020080070777402412 -0.016200779584464774
130 -0.010682553428247496 -0.0015291725630172997 0.002577411675385475
42 -0.026167333434123745 0.01687850097882688 -0.006159204300488287
64 -0.0008883342628666005 -0.003717131657484087 -0.0017088155119966116
1786 -0.0011672723475293957 0.0014604504360395134 -0.0010031095308436588
1787 -0.0016113325638121231 0.002443692310383228 -0.004500455259667171
1402 0.00013918915795477555 -0.0030686244110205477 0.0041795007312847654
2071 0.0026193127596901666 0.0005360795973758497 0.005647557952732448
2368 -0.000987650908855467 -0.006967958153842737 0.0022239204258808825
985 0.0030191399185638505 0.003450802410059679 0.00030145223633849745
1033 -0.002401541410609959 -0.001654635117736628 0.004177178305329449
367 0.004926052919947563 0.006763326131140511 -0.008730348213124408
207 0.0062505337953921445 -0.0007736887512846685 -0.0003699107890596263
1617 0.0022502657824101067 -0.005260746436793457 -0.0011887439784304442
271 -0.005798071098576017 -0.004224957123876006 -0.0015756234359414654
1989 0.0009758822845413096 0.0007153086061182034 0.00611158869609135
1848 0.013554235374112145 0.023126198713909165 -0.015401843748036905
631 0.004588149659190292 -0.008425146374255286 0.004370735104161542
715 0.0018030274124500305 0.007349301311484536 0.0034947867199702316
1224 0.012501210183055939 -0.014600487296913229 0.00824529077290453
460 0.0013630788783078264 -0.004377831933852628 0.00012001382402835547
2377 0.0016746522638164932 0.0010509398793562292 0.00913569002830928
1775 -0.0062223367821211155 0.02559405536034902 0.013416454622161142
1222 -0.008151083587118206 -0.008885553669463636 0.0005975623973816282
205 0.0032584474199145396 0.0013991379038845425 0.0051657472827830765
1338 0.014458217222893742 -0.002028870993355581 -0.017043827836459975
1204 0.0033997844130932405 -0.004757392861195278 0.0001385136864906137
107 -0.0035227106221261515 0.001087607042222274 0.010978489030179233
2378 0.00699231544015302 -0.004915279781690503 -0.00759482075057756
1616 -0.0020685327679966278 0.0032359896594738773 -0.004748118216023532
100 -0.003491320026993037 0.0011276341251620456 3.6386733593884546e-05
2221 0.00044161001390370343 0.0013569336970315176 0.004600964594738892
2021 -0.007835417737751852 0.015829644556257638 -0.00730648694767716
1492 0.0024054769886287333 -0.00282173072042971 -0.0022204917569792772
1950 -0.01645585511972723 -0.00039955503596179155 -0.002775973098102443
1897 -0.002010089274846872 -0.002076182613618802 -0.003682257403395268
206 -0.0031627801261901265 0.007635899374137333 0.01566871020800283
1768 -0.0017820347393943982 0.0028394354418775788 0.0007037174728587578
39 -0.013114661747296393 -0.007358533459971923 -0.005984443603194178
1971 -0.0014086276161393177 0.000748861609402094 0.0023301929555058576
1585 -8.326885102255262e-05 -0.004915696497349843 4.067782059414572e-05
1888 0.005734932940571116 -0.002481757088563323 -0.0009817098339188405
65 -0.002110291526088814 -0.00112815874875377 0.006924987846081229
2062 -0.0058104726561674066 0.004612304001856999 -0.0015527009338628433
370 3.802389644314575e-05 0.0013867529841874331 -0.0002813982576476732
280 -0.001348330969696255 -0.005230330520777992 -0.0016524442347268047
633 0.015154825086736889 0.005878509989844137 -0.01997088025253547
680 0.00040888232358050197 0.008088065936170275 0.03324606495125736
1249 0.000956874183602058 0.002330528748408715 -0.002170902019905074
66 -0.003484868866547546 -0.015332078885133167 0.0009321260398204273
22 -0.0018685652904657523 -0.002624711868032685 0.004487987494111909
1774 -0.005108147989133037 -0.0068519946626581 -0.004512535547327505
368 0.0172607176190224 0.00665315068742175 0.005680449495054025
2037 0.005681842070855398 -0.015839562732718943 0.014006336908457397
513 -0.0008544054302975997 -0.02078366520671312 0.0012011581760977216
1619 -0.01422977613378701 0.003942012953980196 0.0008720202801841017
1713 -0.005086109013732162 -0.027277156009560814 -0.007529489913971822
132 0.0032189187800477 -0.01925376739619914 0.007167115207925467
1441 -0.0008796824557491611 -0.00027613730089849826 -1.556589989061435e-05
1337 0.0034310713068225777 0.012771464537344996 -0.00718823883141514
2047 0.008380569154248887 -0.0012132347849923152 0.0006492236418786287
632 -0.005535460630328662 -0.0009425038332432132 0.00391193570246402
2034 -0.004143049664500472 0.010838168766211256 0.013190577754719707
2109 -0.012865128856552775 -0.010196966094108074 -0.014007152627402096
23 -0.008743501807057621 -0.0025516314741319567 0.005623522766118868
436 0.00023275672767549753 0.0073562702700342405 0.0020354259250619467
276 0.006654857538785987 0.002569314299180458 0.0055610320294381945
1223 -0.006053965176108856 0.015263751895622435 -0.008602143672342692
1350 0.018150110880491618 0.00405451693070106 -0.00817862145103241
1208 0.00831942496803799 0.007581778624732729 0.010005051550266797
2036 -0.01318857197987263 -0.0049252232002934965 -0.00706252756714022
1275 -0.0014450019853891496 2.44309442009917e-06 0.0014901695001666162
2211 0.01788361722225689 -0.017160572757806723 0.011581456118611284
50 -0.0194283387112605 0.009156071709630266 0.006840670838812483
1228 0.004220785075275994 0.0004916769038315585 0.0015958856450654967
1746 0.0009219521786622587 0.026078476263353453 0.0073248764804634756
1618 -0.00030057106145438153 -0.005699260782191913 0.005660862154144806
371 0.020309346441395565 -0.015656525296864524 0.012606011127664246
2297 0.0066911372574754565 -0.000924684688081063 -0.0002818330202166012
554 -0.02063455001117126 -0.006549308895433619 0.010608261573619169
1683 -0.03298304101700685 -0.008971266821237401 0.006611239211519646
209 -0.01493053750043414 0.00033011655565839227 0.0089422725053811
2296 0.0050224215628047915 0.0018847190357307421 -0.003171655711076255
1890 0.002940089877988803 0.0008832455549662978 -0.005004905191069916
461 0.013763715147531948 -0.0194311467202914 0.003230036959308473
1260 -0.005575397703788384 0.004934509398084322 0.013260379426153763
1188 0.01785894665036442 -0.010850280911809158 0.00041718273805579063
635 0.001842136025497891 0.001846058417737149 0.017408790307779462
555 -0.0006863127746727797 0.007255861249873664 0.0030921389115165015
1230 0.002297467075144694 0.001485694852589318 -0.0014801424561676935
1766 0.0191247784707705 0.0009037854727885334 -0.014159195660298062
397 0.0007627374775873533 -0.00293642418366799 0.0008276983210365466
1984 -0.0033138796867001937 0.004835514833821706 0.008706256978975478
987 0.003967071294104105 0.008652031095170428 0.002494496428871691
1506 -0.023679017406825837 0.01492873507395483 -0.006720831745694646
677 -0.01909180815919839 -0.01654006346115816 -0.005280173754715075
1505 0.005117534182435 0.0016902540424374541 0.0030638063322330684
617 0.006011889012304884 -0.015662183871558513 0.010355813048010188
1473 -0.029982023554131588 0.012342611427562416 0.0015398026359701197
1146 0.000600618883514528 -0.030626540471020355 0.010129559473944028
532 -0.0029469529523953996 -0.0017420986374856247 0.0031877069811181383
83 0.001419079208956752 0.01755386099539837 -0.02287144122036709
250 0.002499088465206173 -0.003549289995529225 0.0007423998635864338
2317 -0.00774876168576992 0.0001717452439518019 0.00018562266857845847
600 -0.006572203569260968 -0.018339719916301452 -0.006877255017979954
239 -0.00973712344720674 0.023159025716095325 -0.0012094291891091465
1941 0.006028414342231729 0.007900096333108841 0.017541953849888197
2256 0.0025798167162561533 -0.0032683846919242987 -0.0005415516291356561
1201 -0.009300104379850295 0.0041343102761194905 0.0006718515022756912
1310 0.01462005065410004 -0.001321625305707823 -0.0033054888508135655
517 -0.002297727220960875 -0.00022880689923179871 -0.0020158031663390446
2070 -0.005629276898194473 -0.0025094618887197087 0.01758628480115877
1647 -0.011903515680956062 -0.008999519575793665 0.009668540665640206
1419 -0.013189687299463541 -0.011165280425976469 0.008344116799020111
9 -0.0008067790036697793 -0.010315908921973661 0.010421959581066927
574 0.0061085823810106965 0.0010093857616462897 -0.0027004542014915332
319 -0.007599721363130737 -0.0014627613668468163 0.007704626754044306
626 -0.0026813255537194857 0.003765238128590543 -0.00704189955129378
1763 0.007394831162250262 -0.007115794910389319 0.004606879609606074
1629 -0.0013722186470412033 -1.1184666552188849e-05 0.016749256503707722
819 0.011350258529852287 -0.003958158554218913 -0.03202295548926157
1755 -0.004126782938204557 0.0058166733421902254 0.0002706037694245646
2291 0.004628588770819501 0.010172533589655232 0.006548976119090363
737 0.008644831471753248 -0.016169739933201848 0.0018605208493294133
1332 0.014366343844368351 0.0072491353054775194 0.002943537351020076
1546 0.008244065035448021 0.00676504264013027 -0.002770002862841574
620 0.006141450691501525 -6.832338663824127e-05 0.01528947617430527
2389 0.0014256657836433184 -0.009018302973961074 -0.0007606104083165944
841 0.0008174419260589705 0.002351742433343389 -0.003729842691720539
1790 0.0012469695950808866 0.0076399778962064615 -0.0004225764800120121
1991 0.0047685613935168104 -0.016716480685895128 -0.014555706930986026
355 -0.00013380859924326142 0.005630487197849929 0.0007419021875824676
251 -0.0005682220110205339 0.03226895186186024 -0.011028831250701593
975 -0.008427970770295818 0.014396045795391115 -0.019630953769648393
237 0.029009099191964142 -0.0035936417084395846 -0.01866977983467657
2272 -0.00028799422270636205 0.0030093875901860715 0.0031223155170692525
544 0.0031564580450662784 0.007774367683906521 -0.00763878365416228
1387 0.007815984806376606 -0.0012633018709914715 -0.006099357045760098
2226 0.007888012904130923 0.0038915249055997735 0.013620684322572426
791 0.0024075979631998424 -0.007561642099943986 0.004691349205003671
27 0.0037538940230512274 0.001856502954399735 -0.0069608633073235116
84 -0.010894316216312401 -0.018382519441576577 0.003673280581894688
244 -0.0028891879162875407 -0.00622887091076937 -0.0033060821880593846
2048 -0.008646060516249372 0.004232737504719856 -0.019355387215178092
2123 -0.00266575444667003 -0.0027016638717899887 -0.01166703192286544
2382 0.008204329420801787 0.004499281239525972 -0.0019242027797115085
1022 0.01975988421552649 0.008467248026065901 -0.008485394799066716
1023 -0.0022556745393728203 0.015336309820041685 -0.008692817250316003
562 0.000876898240166822 0.004782834027118182 0.0051339479521210684
7 -9.740604091215464e-05 -0.0040405229058388245 0.00019158404569986285
699 0.0008954561521845556 -0.0009105790896726326 -0.02376079692156706
343 -0.0021386172524918328 -0.0035785758722914653 0.00372747302504828
1203 0.008708856999828702 -0.024444448860263097 -0.007831726751008294
518 -0.005235567483680572 -0.015327957039878397 -0.00391083482854632
769 0.007982638136521307 0.003607017594706388 0.0070582589337302055
1413 -0.0057761679910349265 0.0019954623674467964 -0.018497530585566226
1990 -0.0009642062342032499 0.0009909261609847657 3.175562953797645e-05
1309 -0.00856330942699125 -0.002380552483736396 -0.005107897944517294
1933 -0.005553982326584582 0.0004949845397354888 -0.0037426155325675924
1471 -0.0042178143235871695 0.00170695463147674 0.0017700771622376895
2318 -0.008393496026082905 -0.013794253145617831 0.00523435787355201
672 0.00982633440220633 0.0012039601596178164 -0.005517242756666435
1389 -0.0009215617220634677 0.010744788533148234 -0.008484440592546137
588 -0.004809631607090515 -0.00545860661177261 0.018929710376524838
2220 -0.001198862592837267 0.015931166639589756 -0.00941798766614381
1901 -0.015140685900611945 0.019895566274548134 0.0024382756950067316
2218 -0.008885385086909598 0.0021007119874904613 0.002191060879544762
2066 0.0024379480758267035 0.017085001073752132 0.0018381238211810978
2390 0.004454154287913443 -0.012139396421790396 -0.01080944172654238
2273 -0.018469092143116705 0.010448675263352417 -0.0003719494769911237
357 0.011729290019231993 -0.00727438278400393 -0.01788705920150008
1945 0.004057330183262581 0.0010048483247962923 0.0011813333511480081
627 -0.0036482793498380855 -0.0006975333348889817 0.016572860497757122
598 0.005572635637770243 0.009115050501870737 0.0015804512408205647
698 -0.014556196558857454 -0.0006278009880779644 -0.0004176866109780026
1417 -0.0006881729733107983 0.002636392332912161 0.002856670590309155
1581 -0.00796768575928841 0.006189306994844418 0.005938397465672968
1472 -0.010537719183604083 0.013268445632403342 0.006114525111126631
123 -0.0007910899205123584 -0.0006731888822985212 -0.009120243917110039
1764 -0.001553420121096779 0.0025536054364632826 0.001686834434116967
2207 0.0012053307135234434 0.01306328712556245 -0.02016845484669585
299 0.014484080574880107 0.01640728322027825 0.0013738617105449916
1754 0.003983474590033841 0.007871365890468645 -0.0008810055204953997
649 -0.002272355836981559 0.00020767777407038588 -0.004335425480607092
2231 0.004195024132639145 0.0025708630321056502 0.004673024349483862
795 0.0014955949888381676 0.002770914981499748 -0.003836928485461112
2069 0.013263423085561117 -0.00622750061530151 -0.01981375594196565
1388 0.024135635680995707 -0.0027510881475476504 -0.005338285230163437
1330 -0.00017446205464774335 0.0017434434110577145 -0.002986292000183651
2180 -0.0075123424911408 -0.04742252027665205 0.010492474863221675
1818 0.012716989666484019 -0.015570445828900352 0.014527771864720155
2019 0.0059058330455429315 0.0024714218000757415 0.02450518481214195
576 0.009546770090858301 0.009287375750797078 -0.005615821532260458
1083 -0.021558880930875705 -0.024033721450181955 0.005639059896331353
843 -0.002846930246693503 0.005137673677011402 0.007573646091875201
2293 0.000760987533182796 0.0008537750401459555 0.002641521423552048
587 -0.002830322094142273 0.01515824619798837 0.010591971474844716
1589 -0.02204586318563239 -0.01702236088593562 -0.0025984565322465475
44 -0.01764647315414535 -0.015051724781269803 0.014481883124420804
564 -0.006433218181599503 -0.003228708707157988 -0.003082239613337341
590 0.0015711286332140304 -0.010987321656975132 -0.005542537461263799
2225 -0.0022964296438925578 0.005077571806513209 0.005162628582954951
2290 0.0025632541808664005 0.0027559554758912596 0.001591402244821934
1634 -0.0021121051774855666 0.0026914680891740326 -0.001385108442526803
2017 -0.00048497327989830243 0.0034944624785424906 0.002545546317426268
2216 0.002895918713213344 0.008674934218648496 -0.001286750018199375
2152 0.003925410972981708 0.00048174972874279025 -0.0002939516241087202
1940 0.005703509339866504 0.007142604757294435 0.015303967616999458
1449 0.0013361140038953324 0.010374501832334402 0.0013071939203662761
1663 0.0027643956611642807 -0.004413822032083245 -0.0002691024513593449
1088 -0.0034331177573001747 -0.0020780281904161984 -0.0005871464512757224
575 0.012706753808054888 -0.00035228288498411554 0.005367566649487725
783 0.03078440749584023 -0.011802835404191511 -0.028624680460028383
725 -0.0004470183601071655 0.01308866627010583 -0.003390931378340621
817 -0.005542949695037263 -0.004441523147866322 0.0017864063656926796
2174 0.006579862590040257 0.014705612301436174 0.005793852793703354
792 0.009732641859207459 0.0076174772402692135 -0.003900050510703143
8 -0.0044993048051611174 -0.005946311907720464 -0.0019525830926118756
82 -0.0017851741335957077 0.00015340877652900517 -0.004027259880397997
842 -0.005712973629111766 -0.007578805803810927 0.012330096266859018
1903 -0.0002069044131176871 -0.00597647933003259 0.004205657696952773
1144 0.0021799541276355944 0.0033166300009947873 0.0030702208630524488
818 -0.012337310839291325 0.020496670028105075 0.028023970024190888
55 0.00043971464253796404 0.0006283662416843801 -0.004491128897599315
1396 0.00032946749684767515 -0.008732357819425694 0.0005869443214511132
982 0.0006507550916830738 0.0016318308040457455 0.004047676100098808
366 0.004995345725317496 0.025463640767016824 -0.007668434385459638
252 -0.004429824822307636 0.03781120365303131 -0.0032493921902098746
1602 0.01207122819391526 0.005224712729704762 -0.005367055807231421
1601 0.007239494317395766 -0.009600068073125814 -0.01051106732128801
1646 -0.00017189231147426347 0.006362011288004677 -0.007753127191002152
2179 0.002505509173285312 -0.0010728960239910772 0.00011283145842836491
748 -0.005094487186484979 -0.0016827306223383125 -0.005965691267027253
697 0.002499705651421095 -0.0019018708742652042 -0.004749066494539114
1665 0.021802694034650925 -0.0020930792173070394 -0.021420440387422524
2014 -0.0007621602563742998 0.0015957987142885056 0.004497534811285534
1149 0.0018216876645251276 -0.0008474460967402423 -0.01798354676413964
1202 -0.005291338456404032 0.012548240511041486 0.03627446092380963
736 0.0042767168743471735 -0.0014400509186325132 -0.004708569569980037
1588 0.003153253791897958 0.002470200615211259 0.0033174564010715717
238 0.010138030598089483 -0.0019155031120619958 -0.0008950759256796433
377 0.007034993940577742 0.00024199405311601196 -0.005937168725483298
1469 0.004947015122795236 -0.010560154956757236 -0.00844055765820191
2230 -0.004052621994824228 -0.0007094722824272391 -7.412260508860232e-05
1878 -0.004399819398667114 0.00873079923159369 -0.006818145465579225
2068 -0.0043897698254264095 -0.004948947902271794 -0.0005002173253363786
983 0.0017455916346982897 -0.0002100759242031935 0.024294852549104837
2154 -0.010949951528485019 0.0015711871499503288 -0.00927519759116191
26 0.022062323665873834 2.7978054517580197e-05 0.027323812704975997
2294 -0.002203604976905388 -0.009392661444579715 0.015198469456473176
401 0.0032989174021918906 0.013967542586902894 -0.01363010369547496
1148 0.008366960789314875 0.01583842770680675 -0.002749707433546652
2083 -0.0003310528018586901 -0.0088102891493327 -0.005579738506145072
2153 0.004457765262575363 0.0010627132019765402 -0.00011160956162662327
1730 -0.003414258535163078 -0.02052064838243818 0.007035182992392442
1628 -0.004922322875582226 -0.01180388520907049 -0.007299640504828485
2067 0.011480271040183907 -0.007860350929495708 0.033460522338721085
770 0.012574061057539493 -0.00486432071657378 0.00892557771651322
1934 -0.009075038321892019 0.017409240400104654 0.004200962637593467
1939 0.002624250656986966 -0.0016823340593203906 -0.000777141260952398
693 0.03573855909355717 -0.008348016870852017 -0.004163157436074847
1398 0.004396853642147866 -0.0010329237707707476 0.019874739111492408
1654 0.0017693573856266559 0.003900100134298975 -0.0004153389766386027
790 0.0033568406154868527 0.0012033445247865249 0.004828495883472522
570 -0.006093876922040789 -0.01371404253248523 0.04288652320791979
25 0.009127590810466827 0.002299154956445011 0.003778293436631418
1470 0.005118083650826544 0.010902810988276519 0.0007858444655941848
122 0.00036326120643227777 -0.024372300153033922 -0.011255478804314411
974 -0.010919765578843582 -0.0002778435218375254 0.014908111041169306
771 0.005340188956788278 0.009789081473855607 0.008370192304950116
1021 -0.0008947157362282959 0.002554071081401227 -0.0008110392211973154
2304 0.002993538219318495 -0.017875529520752356 -0.0065606832327125015
1105 0.0018053874952718143 0.0009836227402915082 -0.0004811442277058409
1468 -0.002760514972373893 0.002284392618277987 0.0031340519117826187
621 -0.002027317948332287 -0.010550020247647361 0.014474492805957863
298 0.005419371517524888 0.0005038214958249357 -0.00660065183662194
687 0.008029491817092229 -0.011793555024504826 0.005537103870921758
2310 -0.013763922050602636 -0.01328788052705512 -0.008061440626410336
546 -0.0023135333623030526 -0.011007014882441907 -0.010182375774946729
383 -0.013594730369740992 -0.01618655560692339 -0.011465769080964519
2232 -0.01413847021655073 0.0005461244065024541 0.0009607579359914057
1947 0.0012874679943480172 -0.007597833890889381 -0.002589565342969578
2295 -0.00011487480481262468 -0.005482750946727846 0.009340861161353001
1089 0.009028302893876461 0.00045229756029125957 0.0008049495109792357
300 0.02380846676554901 -0.01567660984067787 -0.00513335341777497
400 0.0048374016921980114 -0.0037242499419702438 0.005768667429590197
345 0.010756026515007601 0.006968546561171806 0.017986511432480316
1877 -0.002830966234849781 -0.001784422206516298 -0.0083611606197193
1081 0.0005563728737310239 0.0011693411677607256 -0.0030109830045276943
1539 0.0044120253223915796 -0.009499960286831461 0.011115426409576815
2181 -0.02042096560097393 -0.013061942478874386 -0.01307715636621993
738 0.005888200637530755 -0.01802154816529642 0.0038346665850126616
1590 -0.011485662238238546 -0.019152059038548858 -0.008698388190578938
235 0.0013259112389252523 -0.0008024491870623291 0.0020298231837024166
1731 -0.004117326115053327 -0.016755673593821574 0.0024947003924051412
1905 -0.0028861055007034344 0.0002013076277317755 0.006211859580076633
2274 0.004570961338439818 -0.01208571950800432 0.00880459831305983
1006 -0.008183525514516078 -6.686720541771197e-05 -0.0045282410128805245
1900 -0.002465136720080876 0.0079654131999923 0.0013566313092855705
519 0.010757291726393994 -0.01683321155075962 0.012556588501881929
320 -0.019516901421605615 0.004396659450964789 -0.006679413461884201
2391 -0.005025591999122008 -0.016447310254994425 -0.010755171855924372
72 0.02867079992598843 0.015211246011641378 -0.01135856462400653
384 0.00904809805482376 -0.004673389352183159 -0.003229956386137792
240 0.015857583294786832 -0.006839891714813273 0.026522520962550342
2255 0.00220884190379901 0.010195677635612497 -0.007981059778180382
1876 -0.005726972379418306 0.003760872848072429 -0.010960422552658515
245 -0.01652434020118905 0.0036192516748859475 -0.0142423260851346
365 0.0018198819923633067 0.0005793451474556393 0.007970070937389058
1992 0.0006493046893566543 -0.0019346857808568059 0.0031109721842469845
2292 -0.00192640226539619 0.001076464546332241 -0.009992796620406013
651 0.008288091696518757 0.001074133579400431 -0.0031537112957592335
2065 0.004207318422442165 -0.00291213946245697 -0.001955263272494975
1266 -0.0034708460179719907 -0.014640630135849387 -0.006623940091662711
1904 0.012423475107093924 -0.020565823841310154 -0.0008287378041605224
364 0.013580093999408469 0.0013124412406173092 0.0005872028047635197
2015 0.009225821067073503 0.005863352006047079 0.015822401556277274
1548 -0.009318250791636827 -0.00331472192608425 0.0019912440575870914
1655 -0.012318333889748657 0.0058333905756970715 -0.019831467060845227
1106 -0.03585052591954759 0.0017387529933184241 -0.0002827884691502267
1753 -0.00040095258264890514 0.004263230961951552 0.004624370183482486
1311 -0.012406485442307307 -0.0008844762627696146 -0.007116680562124008
121 0.005266461151354597 -0.0010355839608305448 -0.003266475988839715
2259 -0.01652845809472443 -0.0030140521413335414 0.0039891794649016135
671 -0.003674127096759753 -0.00231144258230881 -0.006977662191304795
586 0.005897371111286558 -0.0027779145418256597 0.002819589528726697
1600 7.846255324723772e-05 -0.00077535809712532 0.005094319150909426
1762 0.0006290483327836657 -0.002800135624994539 0.00020077535644271168
591 -0.030213323696121317 -0.0009484668461843982 0.0022270954386967765
1418 -0.0020738423108135552 0.0007395302134280784 0.009517725367342194
1645 -0.0051860462657721765 0.0003420749680049095 -0.001227462076322255
2303 0.0007995073965191175 -0.003849137808853163 -0.00832658445408049
534 0.008688944606462991 0.005437009750165397 -0.0032294390386760005
568 0.006030768855995069 -0.00309115804770895 0.003917582127018583
2309 0.009784466018105597 -0.007991852097799798 0.022194102411704456
1516 -0.0003948470939572607 0.0029586663547149544 -0.001386989547488496
691 -0.0013770453947825586 -0.003981141326941373 0.004963588046515439
1789 -0.0007675017619641232 0.0009251956869079856 0.0006897886630223374
1816 0.0012447941978997318 0.00046325494327050534 0.0001573431101509038
589 0.001620023839832952 0.0027127735907370256 0.0011082967604669131
446 0.02120034954558711 -0.004603427220865363 0.008684448615938239
619 -0.0009451551183590614 -0.001009489853289007 0.0032606877724974093
2016 0.002952296286921572 -0.013665326663446126 -0.012348076515224954
1633 0.005694375709814834 0.0015882236079847833 -0.006759998554472543
1664 -0.005482343755889855 0.023853616593251893 0.006307663971513504
1087 0.003214464428711673 -0.0011047277870397893 0.00041149051233642137
896 -0.012758252861555784 0.02193972191063751 -0.0012303153418424624
1729 -0.0036534196977983245 0.0011481034481625007 0.0007508930512612171
2308 -0.00039383902362652743 0.005668501630487612 -0.0034063064297637723
2319 -0.010616880788786144 -0.013307726467846977 -0.0007069902152577761
1498 -0.0008893506468912959 0.0052818792516888795 -0.0029616299493440967
692 0.008211319347292613 -0.03172985627066263 -0.005942340976662969
2254 0.005059555755800086 0.0006077625676736652 -0.002315681391525259
344 -0.004780293138330187 -0.020299335272412795 0.004742453095552033
321 -0.01735685100793158 0.006753118366874144 0.005987969658003283
973 -0.0030240497256691784 0.0015273278122713008 -0.002363877940147943
1518 -0.006439895023342604 0.00575391350273144 -0.020527468940839136
376 0.0009824811736059258 0.0015851054315085848 0.003832307150081869
1935 -0.036881978633177236 -0.0315810808421859 0.013810437084205374
569 0.049955223828048345 0.01450821217379368 0.006922657661286622
1147 -0.0011307663636686608 0.006648451957826527 0.006412990708287149
382 0.001423303371810307 -0.005196969047590161 0.001236458753232348
650 -0.0038892329862396176 -0.01621639810110744 0.001157523188199101
236 -0.00283434059692452 0.012304882587359118 0.021547335597140702
599 -0.0030455163608961336 -0.016578485706725002 0.029047795894768212
2224 0.0010160723947835906 0.005111930944013423 0.0002983731434700475
625 0.005462392079953282 0.002760106334776588 0.0007517027692369439
781 -0.004315379573109173 -0.004821617875476003 0.004038293932738965
445 0.005173550269808751 0.0021372901629755103 0.0009652012374498007
897 0.008421630644621068 0.0004411029755174249 -0.01629100382968113
402 0.006150958833188789 -0.006086328067893388 0.007240549844838327
670 0.0014379801399848745 -0.0007587376725705873 -0.0018989635818941622
895 -0.0008512282437681648 -0.0018048576432962515 -0.0047286380539361735
2018 -0.0026228896682045887 -0.0015896613504988856 0.004704237311407918
1627 -0.0015551686039333914 0.003705426650004715 -0.00018163292263955743
782 0.02759168639900263 0.007742344180539157 0.016972350165491853
2302 0.0037638485419159034 0.00522604812404816 -0.004563445109081295
1082 -0.007484369298023863 -0.008034127179526564 0.0001372573822145268
356 0.010270760744474142 0.014680791387372362 0.003975355512061018
1145 0.0013152143197771196 0.017551909621617876 0.01616995166504999
1656 0.0021528255842437967 0.003016521922200642 -0.002138167570713224
1107 0.015617303976656548 -0.016334099347834308 0.012854453403130885
1412 -0.021431386785801174 -0.03422291384329133 -0.03164390382698893
2208 0.00011426486028526176 0.033453008908932304 -0.018387642916424574
1264 -0.0005567618885302808 0.0006457264396241596 -0.0012172481287758114
2126 0.013440696829100233 0.0038836613019984307 -0.0017923186935715997
43 0.003878443747630374 -0.0021772876434083674 -0.0055464243614143935
2206 0.0003013154513889661 0.002830509540604803 0.001306488955530477
45 0.018016712047171222 0.018126403900414555 0.007951141254281752
246 -0.004198313437377657 0.007053502359839361 -0.005824600420317427
1411 -0.008486284628119567 0.00029612385432888945 0.0015778411188500632
378 0.0012374238551926117 -0.019446732316035786 0.022013536484576976
911 0.0008660641941581559 -0.0019262882362368497 0.007250800475528818
1791 0.005016728593730341 -0.003179765292108298 -0.005078274861089584
984 0.0005471069640708423 0.0010574732791425589 -0.015375533741817852
563 -0.00678475000528186 0.008733446294598405 -0.010978845019416721
724 -0.0030549632034089632 -0.0017542172043569022 -0.001102704867859281
1265 -0.006391227671824295 -0.007798492506811913 -0.003100524654897182
1448 0.0025375760823316508 0.0025712825790407713 -0.001823172829738557
1053 -0.0019822461815104425 -0.0005525427010311557 -0.0046903546211942045
2084 -0.003588703965306913 -0.010851628195110373 0.0017610591002412783
1007 -0.010944440375632886 0.0021738757903828647 -2.4929461879835215e-05
56 -0.006112715272692588 0.005533426360608031 -0.007901824871001622
1008 -0.004962410726910222 0.007729323202459226 0.003112213078019907
1447 0.0018489922429087522 0.0028519375761417547 -0.001793678089335871
686 0.006413892493630467 -0.0032510256079383406 0.005928133298414034
211 0.004917035263741697 -0.002555866341095308 7.041243871513895e-06
750 0.00864074502900824 0.00536239683494424 0.0002013049578453734
1234 0.0020130110103359165 -0.004971569431534141 -0.00017981907256450636
350 0.014956597414232258 -0.01737301102269647 -0.012090977225182062
1236 -0.013305544250917057 -0.013203225085439555 0.010300810059234859
487 -0.00540234609742886 -0.005595793832973246 0.00285909105378822
2376 -0.010222616277107202 -0.0026294266670418504 -0.006664205458722783
349 -0.0010838634179846443 -0.010751202252669352 0.003925295027287402
1547 0.006779817885839742 0.01647641530264003 -0.000586058248273995
1454 -0.001283809326733787 0.005410836265983929 0.0016726145725824383
533 -0.003337060434833732 0.0031474129794121244 -0.010956060979923705
1537 -0.007149891132100447 0.003165863346741328 0.001556632969421212
1499 -0.01756228763543013 -0.0018132993579535535 -0.00596657282082962

Bonds

1 1 1423 1424
2 1 1423 1425
3 1 178 179
4 1 178 180
5 1 352 353
6 1 352 354
7 1 1048 1049
8 1 1048 1050
9 1 421 422
10 1 421 423
11 1 1237 1238
12 1 1237 1239
13 1 2365 2366
14 1 2365 2367
15 1 1852 1853
16 1 1852 1854
17 1 157 158
18 1 157 159
19 1 1639 1640
20 1 1639 1641
21 1 1741 1742
22 1 1741 1743
23 1 2332 2333
24 1 2332 2334
25 1 2344 2345
26 1 2344 2346
27 1 1612 1613
28 1 1612 1614
29 1 412 413
30 1 412 414
31 1 1840 1841
32 1 1840 1842
33 1 2329 2330
34 1 2329 2331
35 1 1024 1025
36 1 1024 1026
37 1 1486 1487
38 1 1486 1488
39 1 151 152
40 1 151 153
41 1 664 665
42 1 664 666
43 1 181 182
44 1 181 183
45 1 2170 2171
46 1 2170 2172
47 1 1915 1916
48 1 1915 1917
49 1 1039 1040
50 1 1039 1041
51 1 1189 1190
52 1 1189 1191
53 1 1276 1277
54 1 1276 1278
55 1 595 596
56 1 595 597
57 1 2077 2078
58 1 2077 2079
59 1 103 104
60 1 103 105
61 1 571 572
62 1 571 573
63 1 145 146
64 1 145 147
65 1 925 926
66 1 925 927
67 1 406 407
68 1 406 408
69 1 325 326
70 1 325 327
71 1 1279 1280
72 1 1279 1281
73 1 643 644
74 1 643 645
75 1 1420 1421
76 1 1420 1422
77 1 871 872
78 1 871 873
79 1 2281 2282
80 1 2281 2283
81 1 2233 2234
82 1 2233 2235
83 1 1861 1862
84 1 1861 1863
85 1 2251 2252
86 1 2251 2253
87 1 955 956
88 1 955 957
89 1 583 584
90 1 583 585
91 1 2089 2090
92 1 2089 2091
93 1 592 593
94 1 592 594
95 1 13 14
96 1 13 15
97 1 2191 2192
98 1 2191 2193
99 1 1531 1532
100 1 1531 1533
101 1 859 860
102 1 859 861
103 1 796 797
104 1 796 798
105 1 1525 1526
106 1 1525 1527
107 1 1195 1196
108 1 1195 1197
109 1 1255 1256
110 1 1255 1257
111 1 133 134
112 1 133 135
113 1 1858 1859
114 1 1858 1860
115 1 2092 2093
116 1 2092 2094
117 1 1129 1130
118 1 1129 1131
119 1 424 425
120 1 424 426
121 1 1171 1172
122 1 1171 1173
123 1 658 659
124 1 658 660
125 1 2266 2267
126 1 2266 2268
127 1 1942 1943
128 1 1942 1944
129 1 2278 2279
130 1 2278 2280
131 1 604 605
132 1 604 606
133 1 1555 1556
134 1 1555 1557
135 1 832 833
136 1 832 834
137 1 1738 1739
138 1 1738 1740
139 1 1624 1625
140 1 1624 1626
141 1 1798 1799
142 1 1798 1800
143 1 475 476
144 1 475 477
145 1 565 566
146 1 565 567
147 1 907 908
148 1 907 909
149 1 79 80
150 1 79 81
151 1 1651 1652
152 1 1651 1653
153 1 1243 1244
154 1 1243 1245
155 1 88 89
156 1 88 90
157 1 727 728
158 1 727 729
159 1 1648 1649
160 1 1648 1650
161 1 1708 1709
162 1 1708 1710
163 1 541 542
164 1 541 543
165 1 118 119
166 1 118 120
167 1 1456 1457
168 1 1456 1458
169 1 931 932
170 1 931 933
171 1 946 947
172 1 946 948
173 1 1465 1466
174 1 1465 1467
175 1 1927 1928
176 1 1927 1929
177 1 277 278
178 1 277 279
179 1 2395 2396
180 1 2395 2397
181 1 463 464
182 1 463 465
183 1 1291 1292
184 1 1291 1293
185 1 1783 1784
186 1 1783 1785
187 1 1780 1781
188 1 1780 1782
189 1 415 416
190 1 415 417
191 1 1459 1460
192 1 1459 1461
193 1 688 689
194 1 688 690
195 1 1480 1481
196 1 1480 1482
197 1 1132 1133
198 1 1132 1134
199 1 1606 1607
200 1 1606 1608
201 1 283 284
202 1 283 285
203 1 919 920
204 1 919 921
205 1 721 722
206 1 721 723
207 1 904 905
208 1 904 906
209 1 1669 1670
210 1 1669 1671
211 1 2110 2111
212 1 2110 2112
213 1 313 314
214 1 313 315
215 1 979 980
216 1 979 981
217 1 2326 2327
218 1 2326 2328
219 1 442 443
220 1 442 444
221 1 481 482
222 1 481 483
223 1 1837 1838
224 1 1837 1839
225 1 2095 2096
226 1 2095 2097
227 1 1069 1070
228 1 1069 1071
229 1 2005 2006
230 1 2005 2007
231 1 2227 2228
232 1 2227 2229
233 1 232 233
234 1 232 234
235 1 550 551
236 1 550 552
237 1 1825 1826
238 1 1825 1827
239 1 1267 1268
240 1 1267 1269
241 1 220 221
242 1 220 222
243 1 526 527
244 1 526 528
245 1 2359 2360
246 1 2359 2361
247 1 1333 1334
248 1 1333 1335
249 1 292 293
250 1 292 294
251 1 1570 1571
252 1 1570 1572
253 1 340 341
254 1 340 342
255 1 4 5
256 1 4 6
257 1 1924 1925
258 1 1924 1926
259 1 328 329
260 1 328 330
261 1 628 629
262 1 628 630
263 1 346 347
264 1 346 348
265 1 778 779
266 1 778 780
267 1 823 824
268 1 823 825
269 1 223 224
270 1 223 225
271 1 190 191
272 1 190 192
273 1 334 335
274 1 334 336
275 1 1354 1355
276 1 1354 1356
277 1 1300 1301
278 1 1300 1302
279 1 2197 2198
280 1 2197 2199
281 1 1963 1964
282 1 1963 1965
283 1 193 194
284 1 193 195
285 1 388 389
286 1 388 390
287 1 2341 2342
288 1 2341 2343
289 1 520 521
290 1 520 522
291 1 1198 1199
292 1 1198 1200
293 1 991 992
294 1 991 993
295 1 889 890
296 1 889 891
297 1 730 731
298 1 730 732
299 1 2386 2387
300 1 2386 2388
301 1 2131 2132
302 1 2131 2133
303 1 1870 1871
304 1 1870 1872
305 1 454 455
306 1 454 456
307 1 1102 1103
308 1 1102 1104
309 1 1822 1823
310 1 1822 1824
311 1 1066 1067
312 1 1066 1068
313 1 175 176
314 1 175 177
315 1 1603 1604
316 1 1603 1605
317 1 97 98
318 1 97 99
319 1 1303 1304
320 1 1303 1305
321 1 1756 1757
322 1 1756 1758
323 1 1474 1475
324 1 1474 1476
325 1 538 539
326 1 538 540
327 1 2104 2105
328 1 2104 2106
329 1 115 116
330 1 115 117
331 1 1561 1562
332 1 1561 1563
333 1 1660 1661
334 1 1660 1662
335 1 1636 1637
336 1 1636 1638
337 1 622 623
338 1 622 624
339 1 2383 2384
340 1 2383 2385
341 1 2239 2240
342 1 2239 2241
343 1 2275 2276
344 1 2275 2277
345 1 1288 1289
346 1 1288 1290
347 1 2287 2288
348 1 2287 2289
349 1 2050 2051
350 1 2050 2052
351 1 505 506
352 1 505 507
353 1 877 878
354 1 877 879
355 1 217 218
356 1 217 219
357 1 2161 2162
358 1 2161 2163
359 1 1477 1478
360 1 1477 1479
361 1 1012 1013
362 1 1012 1014
363 1 2149 2150
364 1 2149 2151
365 1 802 803
366 1 802 804
367 1 1141 1142
368 1 1141 1143
369 1 751 752
370 1 751 753
371 1 997 998
372 1 997 999
373 1 844 845
374 1 844 846
375 1 2203 2204
376 1 2203 2205
377 1 493 494
378 1 493 495
379 1 742 743
380 1 742 744
381 1 139 140
382 1 139 141
383 1 2146 2147
384 1 2146 2148
385 1 1759 1760
386 1 1759 1761
387 1 745 746
388 1 745 747
389 1 214 215
390 1 214 216
391 1 1426 1427
392 1 1426 1428
393 1 457 458
394 1 457 459
395 1 160 161
396 1 160 162
397 1 2182 2183
398 1 2182 2184
399 1 1513 1514
400 1 1513 1515
401 1 1693 1694
402 1 1693 1695
403 1 301 302
404 1 301 303
405 1 2236 2237
406 1 2236 2238
407 1 1390 1391
408 1 1390 1392
409 1 1795 1796
410 1 1795 1797
411 1 1099 1100
412 1 1099 1101
413 1 496 497
414 1 496 498
415 1 1552 1553
416 1 1552 1554
417 1 154 155
418 1 154 156
419 1 253 254
420 1 253 255
421 1 10 11
422 1 10 12
423 1 2347 2348
424 1 2347 2349
425 1 1867 1868
426 1 1867 1869
427 1 1432 1433
428 1 1432 1434
429 1 967 968
430 1 967 969
431 1 1936 1937
432 1 1936 1938
433 1 502 503
434 1 502 504
435 1 1162 1163
436 1 1162 1164
437 1 1972 1973
438 1 1972 1974
439 1 1096 1097
440 1 1096 1098
441 1 1438 1439
442 1 1438 1440
443 1 289 290
444 1 289 291
445 1 268 269
446 1 268 270
447 1 2194 2195
448 1 2194 2196
449 1 196 197
450 1 196 198
451 1 1696 1697
452 1 1696 1698
453 1 490 491
454 1 490 492
455 1 1378 1379
456 1 1378 1380
457 1 1522 1523
458 1 1522 1524
459 1 1216 1217
460 1 1216 1218
461 1 679 680
462 1 679 681
463 1 2155 2156
464 1 2155 2157
465 1 1999 2000
466 1 1999 2001
467 1 1528 1529
468 1 1528 1530
469 1 805 806
470 1 805 807
471 1 373 374
472 1 373 375
473 1 1369 1370
474 1 1369 1371
475 1 2398 2399
476 1 2398 2400
477 1 709 710
478 1 709 711
479 1 1714 1715
480 1 1714 1716
481 1 799 800
482 1 799 801
483 1 1381 1382
484 1 1381 1383
485 1 184 185
486 1 184 186
487 1 1609 1610
488 1 1609 1611
489 1 295 296
490 1 295 297
491 1 2140 2141
492 1 2140 2142
493 1 385 386
494 1 385 387
495 1 577 578
496 1 577 579
497 1 694 695
498 1 694 696
499 1 760 761
500 1 760 762
501 1 2044 2045
502 1 2044 2046
503 1 1078 1079
504 1 1078 1080
505 1 523 524
506 1 523 525
507 1 883 884
508 1 883 885
509 1 1429 1430
510 1 1429 1431
511 1 703 704
512 1 703 705
513 1 814 815
514 1 814 816
515 1 1750 1751
516 1 1750 1752
517 1 484 485
518 1 484 486
519 1 1687 1688
520 1 1687 1689
521 1 166 167
522 1 166 168
523 1 1507 1508
524 1 1507 1509
525 1 478 479
526 1 478 480
527 1 2299 2300
528 1 2299 2301
529 1 1156 1157
530 1 1156 1158
531 1 262 263
532 1 262 264
533 1 1399 1400
534 1 1399 1401
535 1 1414 1415
536 1 1414 1416
537 1 469 470
538 1 469 471
539 1 1285 1286
540 1 1285 1287
541 1 2002 2003
542 1 2002 2004
543 1 913 914
544 1 913 915
545 1 706 707
546 1 706 708
547 1 2059 2060
548 1 2059 2061
549 1 838 839
550 1 838 840
551 1 820 821
552 1 820 822
553 1 1483 1484
554 1 1483 1485
555 1 892 893
556 1 892 894
557 1 1594 1595
558 1 1594 1596
559 1 1192 1193
560 1 1192 1194
561 1 430 431
562 1 430 432
563 1 1444 1445
564 1 1444 1446
565 1 1258 1259
566 1 1258 1260
567 1 1642 1643
568 1 1642 1644
569 1 2362 2363
570 1 2362 2364
571 1 2338 2339
572 1 2338 2340
573 1 1324 1325
574 1 1324 1326
575 1 2026 2027
576 1 2026 2028
577 1 1351 1352
578 1 1351 1353
579 1 1819 1820
580 1 1819 1821
581 1 1621 1622
582 1 1621 1623
583 1 682 683
584 1 682 684
585 1 1060 1061
586 1 1060 1062
587 1 1153 1154
588 1 1153 1155
589 1 1123 1124
590 1 1123 1125
591 1 1003 1004
592 1 1003 1005
593 1 1807 1808
594 1 1807 1809
595 1 1540 1541
596 1 1540 1542
597 1 853 854
598 1 853 855
599 1 142 143
600 1 142 144
601 1 1873 1874
602 1 1873 1875
603 1 2038 2039
604 1 2038 2040
605 1 2074 2075
606 1 2074 2076
607 1 1918 1919
608 1 1918 1920
609 1 1252 1253
610 1 1252 1254
611 1 1657 1658
612 1 1657 1659
613 1 934 935
614 1 934 936
615 1 1030 1031
616 1 1030 1032
617 1 1804 1805
618 1 1804 1806
619 1 1045 1046
620 1 1045 1047
621 1 1009 1010
622 1 1009 1011
623 1 1954 1955
624 1 1954 1956
625 1 1810 1811
626 1 1810 1812
627 1 1405 1406
628 1 1405 1407
629 1 1000 1001
630 1 1000 1002
631 1 1735 1736
632 1 1735 1737
633 1 610 611
634 1 610 612
635 1 1726 1727
636 1 1726 1728
637 1 1093 1094
638 1 1093 1095
639 1 1225 1226
640 1 1225 1227
641 1 2392 2393
642 1 2392 2394
643 1 307 308
644 1 307 309
645 1 247 248
646 1 247 249
647 1 1246 1247
648 1 1246 1248
649 1 835 836
650 1 835 837
651 1 1930 1931
652 1 1930 1932
653 1 1996 1997
654 1 1996 1998
655 1 2101 2102
656 1 2101 2103
657 1 1183 1184
658 1 1183 1185
659 1 439 440
660 1 439 441
661 1 1339 1340
662 1 1339 1341
663 1 226 227
664 1 226 228
665 1 1318 1319
666 1 1318 1320
667 1 1843 1844
668 1 1843 1845
669 1 1126 1127
670 1 1126 1128
671 1 1393 1394
672 1 1393 1395
673 1 1579 1580
674 1 1579 1581
675 1 1261 1262
676 1 1261 1263
677 1 1108 1109
678 1 1108 1110
679 1 433 434
680 1 433 435
681 1 256 257
682 1 256 258
683 1 61 62
684 1 61 63
685 1 2380 2381
686 1 2380 2382
687 1 850 851
688 1 850 852
689 1 1564 1565
690 1 1564 1566
691 1 856 857
692 1 856 858
693 1 1699 1700
694 1 1699 1701
695 1 1270 1271
696 1 1270 1272
697 1 529 530
698 1 529 531
699 1 2245 2246
700 1 2245 2247
701 1 793 794
702 1 793 795
703 1 331 332
704 1 331 333
705 1 2011 2012
706 1 2011 2013
707 1 1705 1706
708 1 1705 1707
709 1 940 941
710 1 940 942
711 1 772 773
712 1 772 774
713 1 1510 1511
714 1 1510 1512
715 1 1327 1328
716 1 1327 1329
717 1 1957 1958
718 1 1957 1959
719 1 1489 1490
720 1 1489 1491
721 1 1675 1676
722 1 1675 1677
723 1 613 614
724 1 613 615
725 1 1690 1691
726 1 1690 1692
727 1 466 467
728 1 466 468
729 1 1120 1121
730 1 1120 1122
731 1 403 404
732 1 403 405
733 1 937 938
734 1 937 939
735 1 1966 1967
736 1 1966 1968
737 1 1174 1175
738 1 1174 1176
739 1 2356 2357
740 1 2356 2358
741 1 1501 1502
742 1 1501 1503
743 1 1117 1118
744 1 1117 1119
745 1 1042 1043
746 1 1042 1044
747 1 229 230
748 1 229 231
749 1 1534 1535
750 1 1534 1536
751 1 1831 1832
752 1 1831 1833
753 1 202 203
754 1 202 204
755 1 1732 1733
756 1 1732 1734
757 1 2305 2306
758 1 2305 2307
759 1 286 287
760 1 286 288
761 1 2176 2177
762 1 2176 2178
763 1 1180 1181
764 1 1180 1182
765 1 1684 1685
766 1 1684 1686
767 1 1159 1160
768 1 1159 1161
769 1 1597 1598
770 1 1597 1599
771 1 886 887
772 1 886 888
773 1 865 866
774 1 865 867
775 1 1342 1343
776 1 1342 1344
777 1 994 995
778 1 994 996
779 1 949 950
780 1 949 951
781 1 1165 1166
782 1 1165 1167
783 1 673 674
784 1 673 675
785 1 499 500
786 1 499 501
787 1 187 188
788 1 187 189
789 1 85 86
790 1 85 87
791 1 1027 1028
792 1 1027 1029
793 1 1054 1055
794 1 1054 1056
795 1 739 740
796 1 739 741
797 1 1573 1574
798 1 1573 1575
799 1 136 137
800 1 136 138
801 1 1213 1214
802 1 1213 1215
803 1 1231 1232
804 1 1231 1233
805 1 964 965
806 1 964 966
807 1 952 953
808 1 952 954
809 1 169 170
810 1 169 171
811 1 580 581
812 1 580 582
813 1 1075 1076
814 1 1075 1077
815 1 58 59
816 1 58 60
817 1 73 74
818 1 73 75
819 1 1702 1703
820 1 1702 1704
821 1 1771 1772
822 1 1771 1773
823 1 1282 1283
824 1 1282 1284
825 1 1345 1346
826 1 1345 1347
827 1 265 266
828 1 265 267
829 1 2029 2030
830 1 2029 2031
831 1 1543 1544
832 1 1543 1545
833 1 2320 2321
834 1 2320 2322
835 1 1519 1520
836 1 1519 1521
837 1 559 560
838 1 559 561
839 1 1681 1682
840 1 1681 1683
841 1 862 863
842 1 862 864
843 1 1951 1952
844 1 1951 1953
845 1 31 32
846 1 31 33
847 1 379 380
848 1 379 381
849 1 1294 1295
850 1 1294 1296
851 1 1015 1016
852 1 1015 1017
853 1 124 125
854 1 124 126
855 1 514 515
856 1 514 516
857 1 2053 2054
858 1 2053 2055
859 1 172 173
860 1 172 174
861 1 922 923
862 1 922 924
863 1 826 827
864 1 826 828
865 1 637 638
866 1 637 639
867 1 163 164
868 1 163 165
869 1 2200 2201
870 1 2200 2202
871 1 1921 1922
872 1 1921 1923
873 1 508 509
874 1 508 510
875 1 2248 2249
876 1 2248 2250
877 1 2056 2057
878 1 2056 2058
879 1 46 47
880 1 46 48
881 1 16 17
882 1 16 18
883 1 241 242
884 1 241 243
885 1 2371 2372
886 1 2371 2373
887 1 1885 1886
888 1 1885 1887
889 1 1366 1367
890 1 1366 1368
891 1 322 323
892 1 322 324
893 1 1864 1865
894 1 1864 1866
895 1 943 944
896 1 943 945
897 1 1360 1361
898 1 1360 1362
899 1 1384 1385
900 1 1384 1386
901 1 1678 1679
902 1 1678 1680
903 1 1879 1880
904 1 1879 1881
905 1 2335 2336
906 1 2335 2337
907 1 427 428
908 1 427 429
909 1 310 311
910 1 310 312
911 1 67 68
912 1 67 69
913 1 1240 1241
914 1 1240 1242
915 1 1018 1019
916 1 1018 1020
917 1 958 959
918 1 958 960
919 1 1834 1835
920 1 1834 1836
921 1 1582 1583
922 1 1582 1584
923 1 1960 1961
924 1 1960 1962
925 1 1057 1058
926 1 1057 1059
927 1 1 2
928 1 1 3
929 1 547 548
930 1 547 549
931 1 901 902
932 1 901 903
933 1 733 734
934 1 733 735
935 1 409 410
936 1 409 411
937 1 1090 1091
938 1 1090 1092
939 1 1315 1316
940 1 1315 1317
941 1 2119 2120
942 1 2119 2121
943 1 1666 1667
944 1 1666 1668
945 1 358 359
946 1 358 360
947 1 1375 1376
948 1 1375 1377
949 1 1408 1409
950 1 1408 1410
951 1 19 20
952 1 19 21
953 1 1855 1856
954 1 1855 1857
955 1 1177 1178
956 1 1177 1179
957 1 1111 1112
958 1 1111 1113
959 1 2113 2114
960 1 2113 2115
961 1 1882 1883
962 1 1882 1884
963 1 1321 1322
964 1 1321 1323
965 1 2098 2099
966 1 2098 2100
967 1 1891 1892
968 1 1891 1893
969 1 2008 2009
970 1 2008 2010
971 1 448 449
972 1 448 450
973 1 148 149
974 1 148 150
975 1 1219 1220
976 1 1219 1221
977 1 1912 1913
978 1 1912 1914
979 1 784 785
980 1 784 786
981 1 1975 1976
982 1 1975 1977
983 1 34 35
984 1 34 36
985 1 988 989
986 1 988 990
987 1 2323 2324
988 1 2323 2325
989 1 1150 1151
990 1 1150 1152
991 1 52 53
992 1 52 54
993 1 700 701
994 1 700 702
995 1 2143 2144
996 1 2143 2145
997 1 2023 2024
998 1 2023 2025
999 1 91 92
1000 1 91 93
1001 1 811 812
1002 1 811 813
1003 1 898 899
1004 1 898 900
1005 1 199 200
1006 1 199 201
1007 1 646 647
1008 1 646 648
1009 1 718 719
1010 1 718 720
1011 1 1801 1802
1012 1 1801 1803
1013 1 916 917
1014 1 916 918
1015 1 2116 2117
1016 1 2116 2118
1017 1 2260 2261
1018 1 2260 2262
1019 1 1909 1910
1020 1 1909 1911
1021 1 535 536
1022 1 535 537
1023 1 2188 2189
1024 1 2188 2190
1025 1 1981 1982
1026 1 1981 1983
1027 1 337 338
1028 1 337 339
1029 1 472 473
1030 1 472 474
1031 1 1063 1064
1032 1 1063 1065
1033 1 109 110
1034 1 109 111
1035 1 361 362
1036 1 361 363
1037 1 652 653
1038 1 652 654
1039 1 1072 1073
1040 1 1072 1074
1041 1 1558 1559
1042 1 1558 1560
1043 1 1576 1577
1044 1 1576 1578
1045 1 874 875
1046 1 874 876
1047 1 2122 2123
1048 1 2122 2124
1049 1 1114 1115
1050 1 1114 1116
1051 1 1849 1850
1052 1 1849 1851
1053 1 1210 1211
1054 1 1210 1212
1055 1 418 419
1056 1 418 420
1057 1 1450 1451
1058 1 1450 1452
1059 1 847 848
1060 1 847 849
1061 1 685 686
1062 1 685 687
1063 1 661 662
1064 1 661 663
1065 1 2353 2354
1066 1 2353 2355
1067 1 2080 2081
1068 1 2080 2082
1069 1 304 305
1070 1 304 306
1071 1 2374 2375
1072 1 2374 2376
1073 1 2314 2315
1074 1 2314 2316
1075 1 28 29
1076 1 28 30
1077 1 1591 1592
1078 1 1591 1593
1079 1 2242 2243
1080 1 2242 2244
1081 1 1036 1037
1082 1 1036 1038
1083 1 76 77
1084 1 76 78
1085 1 1363 1364
1086 1 1363 1365
1087 1 1894 1895
1088 1 1894 1896
1089 1 451 452
1090 1 451 453
1091 1 1978 1979
1092 1 1978 1980
1093 1 1549 1550
1094 1 1549 1551
1095 1 2086 2087
1096 1 2086 2088
1097 1 94 95
1098 1 94 96
1099 1 712 713
1100 1 712 714
1101 1 2158 2159
1102 1 2158 2160
1103 1 910 911
1104 1 910 912
1105 1 829 830
1106 1 829 831
1107 1 970 971
1108 1 970 972
1109 1 316 317
1110 1 316 318
1111 1 1906 1907
1112 1 1906 1908
1113 1 928 929
1114 1 928 930
1115 1 1138 1139
1116 1 1138 1140
1117 1 259 260
1118 1 259 261
1119 1 2167 2168
1120 1 2167 2169
1121 1 2350 2351
1122 1 2350 2352
1123 1 2173 2174
1124 1 2173 2175
1125 1 1717 1718
1126 1 1717 1719
1127 1 1720 1721
1128 1 1720 1722
1129 1 1777 1778
1130 1 1777 1779
1131 1 961 962
1132 1 961 963
1133 1 1084 1085
1134 1 1084 1086
1135 1 640 641
1136 1 640 642
1137 1 2311 2312
1138 1 2311 2313
1139 1 775 776
1140 1 775 777
1141 1 1630 1631
1142 1 1630 1632
1143 1 601 602
1144 1 601 603
1145 1 1993 1994
1146 1 1993 1995
1147 1 1435 1436
1148 1 1435 1437
1149 1 1306 1307
1150 1 1306 1308
1151 1 808 809
1152 1 808 810
1153 1 787 788
1154 1 787 789
1155 1 1747 1748
1156 1 1747 1749
1157 1 112 113
1158 1 112 114
1159 1 1372 1373
1160 1 1372 1374
1161 1 1312 1313
1162 1 1312 1314
1163 1 2164 2165
1164 1 2164 2166
1165 1 2134 2135
1166 1 2134 2136
1167 1 1792 1793
1168 1 1792 1794
1169 1 70 71
1170 1 70 72
1171 1 127 128
1172 1 127 129
1173 1 1135 1136
1174 1 1135 1137
1175 1 607 608
1176 1 607 609
1177 1 1357 1358
1178 1 1357 1359
1179 1 1051 1052
1180 1 1051 1053
1181 1 391 392
1182 1 391 393
1183 1 757 758
1184 1 757 759
1185 1 1462 1463
1186 1 1462 1464
1187 1 1495 1496
1188 1 1495 1497
1189 1 2215 2216
1190 1 2215 2217
1191 1 2212 2213
1192 1 2212 2214
1193 1 1186 1187
1194 1 1186 1188
1195 1 880 881
1196 1 880 882
1197 1 2263 2264
1198 1 2263 2265
1199 1 1711 1712
1200 1 1711 1713
1201 1 2128 2129
1202 1 2128 2130
1203 1 1453 1454
1204 1 1453 1455
1205 1 655 656
1206 1 655 657
1207 1 1813 1814
1208 1 1813 1815
1209 1 208 209
1210 1 208 210
1211 1 1336 1337
1212 1 1336 1338
1213 1 1615 1616
1214 1 1615 1617
1215 1 2107 2108
1216 1 2107 2109
1217 1 1348 1349
1218 1 1348 1350
1219 1 1273 1274
1220 1 1273 1275
1221 1 868 869
1222 1 868 870
1223 1 634 635
1224 1 634 636
1225 1 2137 2138
1226 1 2137 2139
1227 1 553 554
1228 1 553 555
1229 1 616 617
1230 1 616 618
1231 1 37 38
1232 1 37 39
1233 1 1504 1505
1234 1 1504 1506
1235 1 2020 2021
1236 1 2020 2022
1237 1 676 677
1238 1 676 678
1239 1 2269 2270
1240 1 2269 2271
1241 1 106 107
1242 1 106 108
1243 1 1828 1829
1244 1 1828 1830
1245 1 1297 1298
1246 1 1297 1299
1247 1 274 275
1248 1 274 276
1249 1 511 512
1250 1 511 513
1251 1 2209 2210
1252 1 2209 2211
1253 1 1672 1673
1254 1 1672 1674
1255 1 1765 1766
1256 1 1765 1767
1257 1 1948 1949
1258 1 1948 1950
1259 1 1987 1988
1260 1 1987 1989
1261 1 1207 1208
1262 1 1207 1209
1263 1 2035 2036
1264 1 2035 2037
1265 1 2185 2186
1266 1 2185 2187
1267 1 2032 2033
1268 1 2032 2034
1269 1 556 557
1270 1 556 558
1271 1 49 50
1272 1 49 51
1273 1 2125 2126
1274 1 2125 2127
1275 1 394 395
1276 1 394 396
1277 1 766 767
1278 1 766 768
1279 1 754 755
1280 1 754 756
1281 1 976 977
1282 1 976 978
1283 1 667 668
1284 1 667 669
1285 1 1168 1169
1286 1 1168 1170
1287 1 1567 1568
1288 1 1567 1569
1289 1 40 41
1290 1 40 42
1291 1 1723 1724
1292 1 1723 1725
1293 1 1744 1745
1294 1 1744 1746
1295 1 763 764
1296 1 763 765
1297 1 2284 2285
1298 1 2284 2286
1299 1 1846 1847
1300 1 1846 1848
1301 1 2257 2258
1302 1 2257 2259
1303 1 1969 1970
1304 1 1969 1971
1305 1 2041 2042
1306 1 2041 2043
1307 1 130 131
1308 1 130 132
1309 1 64 65
1310 1 64 66
1311 1 1786 1787
1312 1 1786 1788
1313 1 1402 1403
1314 1 1402 1404
1315 1 2071 2072
1316 1 2071 2073
1317 1 2368 2369
1318 1 2368 2370
1319 1 985 986
1320 1 985 987
1321 1 1033 1034
1322 1 1033 1035
1323 1 367 368
1324 1 367 369
1325 1 271 272
1326 1 271 273
1327 1 631 632
1328 1 631 633
1329 1 715 716
1330 1 715 717
1331 1 460 461
1332 1 460 462
1333 1 2377 2378
1334 1 2377 2379
1335 1 1222 1223
1336 1 1222 1224
1337 1 205 206
1338 1 205 207
1339 1 1204 1205
1340 1 1204 1206
1341 1 100 101
1342 1 100 102
1343 1 2221 2222
1344 1 2221 2223
1345 1 1492 1493
1346 1 1492 1494
1347 1 1897 1898
1348 1 1897 1899
1349 1 1768 1769
1350 1 1768 1770
1351 1 1585 1586
1352 1 1585 1587
1353 1 1888 1889
1354 1 1888 1890
1355 1 2062 2063
1356 1 2062 2064
1357 1 370 371
1358 1 370 372
1359 1 280 281
1360 1 280 282
1361 1 1249 1250
1362 1 1249 1251
1363 1 22 23
1364 1 22 24
1365 1 1774 1775
1366 1 1774 1776
1367 1 1441 1442
1368 1 1441 1443
1369 1 2047 2048
1370 1 2047 2049
1371 1 436 437
1372 1 436 438
1373 1 1228 1229
1374 1 1228 1230
1375 1 1618 1619
1376 1 1618 1620
1377 1 2296 2297
1378 1 2296 2298
1379 1 397 398
1380 1 397 399
1381 1 1984 1985
1382 1 1984 1986
1383 1 532 533
1384 1 532 534
1385 1 250 251
1386 1 250 252
1387 1 2317 2318
1388 1 2317 2319
1389 1 1201 1202
1390 1 1201 1203
1391 1 517 518
1392 1 517 519
1393 1 574 575
1394 1 574 576
1395 1 319 320
1396 1 319 321
1397 1 1546 1547
1398 1 1546 1548
1399 1 2389 2390
1400 1 2389 2391
1401 1 841 842
1402 1 841 843
1403 1 355 356
1404 1 355 357
1405 1 2272 2273
1406 1 2272 2274
1407 1 544 545
1408 1 544 546
1409 1 1387 1388
1410 1 1387 1389
1411 1 244 245
1412 1 244 246
1413 1 562 563
1414 1 562 564
1415 1 7 8
1416 1 7 9
1417 1 343 344
1418 1 343 345
1419 1 769 770
1420 1 769 771
1421 1 1990 1991
1422 1 1990 1992
1423 1 1309 1310
1424 1 1309 1311
1425 1 1933 1934
1426 1 1933 1935
1427 1 1471 1472
1428 1 1471 1473
1429 1 2218 2219
1430 1 2218 2220
1431 1 1945 1946
1432 1 1945 1947
1433 1 598 599
1434 1 598 600
1435 1 1417 1418
1436 1 1417 1419
1437 1 649 650
1438 1 649 651
1439 1 1330 1331
1440 1 1330 1332
1441 1 2293 2294
1442 1 2293 2295
1443 1 2290 2291
1444 1 2290 2292
1445 1 2017 2018
1446 1 2017 2019
1447 1 2152 2153
1448 1 2152 2154
1449 1 1663 1664
1450 1 1663 1665
1451 1 817 818
1452 1 817 819
1453 1 82 83
1454 1 82 84
1455 1 1903 1904
1456 1 1903 1905
1457 1 1144 1145
1458 1 1144 1146
1459 1 55 56
1460 1 55 57
1461 1 1396 1397
1462 1 1396 1398
1463 1 982 983
1464 1 982 984
1465 1 2179 2180
1466 1 2179 2181
1467 1 748 749
1468 1 748 750
1469 1 697 698
1470 1 697 699
1471 1 2014 2015
1472 1 2014 2016
1473 1 736 737
1474 1 736 738
1475 1 1588 1589
1476 1 1588 1590
1477 1 238 239
1478 1 238 240
1479 1 2230 2231
1480 1 2230 2232
1481 1 2068 2069
1482 1 2068 2070
1483 1 2083 2084
1484 1 2083 2085
1485 1 1939 1940
1486 1 1939 1941
1487 1 1654 1655
1488 1 1654 1656
1489 1 790 791
1490 1 790 792
1491 1 25 26
1492 1 25 27
1493 1 1021 1022
1494 1 1021 1023
1495 1 1105 1106
1496 1 1105 1107
1497 1 1468 1469
1498 1 1468 1470
1499 1 298 299
1500 1 298 300
1501 1 400 401
1502 1 400 402
1503 1 1081 1082
1504 1 1081 1083
1505 1 235 236
1506 1 235 237
1507 1 1006 1007
1508 1 1006 1008
1509 1 1900 1901
1510 1 1900 1902
1511 1 1876 1877
1512 1 1876 1878
1513 1 2065 2066
1514 1 2065 2067
1515 1 364 365
1516 1 364 366
1517 1 1753 1754
1518 1 1753 1755
1519 1 121 122
1520 1 121 123
1521 1 586 587
1522 1 586 588
1523 1 1600 1601
1524 1 1600 1602
1525 1 1762 1763
1526 1 1762 1764
1527 1 1645 1646
1528 1 1645 1647
1529 1 568 569
1530 1 568 570
1531 1 1516 1517
1532 1 1516 1518
1533 1 691 692
1534 1 691 693
1535 1 1789 1790
1536 1 1789 1791
1537 1 1816 1817
1538 1 1816 1818
1539 1 589 590
1540 1 589 591
1541 1 619 620
1542 1 619 621
1543 1 1633 1634
1544 1 1633 1635
1545 1 1087 1088
1546 1 1087 1089
1547 1 1729 1730
1548 1 1729 1731
1549 1 2308 2309
1550 1 2308 2310
1551 1 1498 1499
1552 1 1498 1500
1553 1 2254 2255
1554 1 2254 2256
1555 1 973 974
1556 1 973 975
1557 1 376 377
1558 1 376 378
1559 1 1147 1148
1560 1 1147 1149
1561 1 382 383
1562 1 382 384
1563 1 2224 2225
1564 1 2224 2226
1565 1 625 626
1566 1 625 627
1567 1 781 782
1568 1 781 783
1569 1 445 446
1570 1 445 447
1571 1 670 671
1572 1 670 672
1573 1 895 896
1574 1 895 897
1575 1 1627 1628
1576 1 1627 1629
1577 1 2302 2303
1578 1 2302 2304
1579 1 1264 1265
1580 1 1264 1266
1581 1 43 44
1582 1 43 45
1583 1 2206 2207
1584 1 2206 2208
1585 1 1411 1412
1586 1 1411 1413
1587 1 724 725
1588 1 724 726
1589 1 1447 1448
1590 1 1447 1449
1591 1 211 212
1592 1 211 213
1593 1 1234 1235
1594 1 1234 1236
1595 1 487 488
1596 1 487 489
1597 1 349 350
1598 1 349 351
1599 1 1537 1538
1600 1 1537 1539

Angles

1 1 1424 1423 1425
2 1 179 178 180
3 1 353 352 354
4 1 1049 1048 1050
5 1 422 421 423
6 1 1238 1237 1239
7 1 2366 2365 2367
8 1 1853 1852 1854
9 1 158 157 159
10 1 1640 1639 1641
11 1 1742 1741 1743
12 1 2333 2332 2334
13 1 2345 2344 2346
14 1 1613 1612 1614
15 1 413 412 414
16 1 1841 1840 1842
17 1 2330 2329 2331
18 1 1025 1024 1026
19 1 1487 1486 1488
20 1 152 151 153
21 1 665 664 666
22 1 182 181 183
23 1 2171 2170 2172
24 1 1916 1915 1917
25 1 1040 1039 1041
26 1 1190 1189 1191
27 1 1277 1276 1278
28 1 596 595 597
29 1 2078 2077 2079
30 1 104 103 105
31 1 572 571 573
32 1 146 145 147
33 1 926 925 927
34 1 407 406 408
35 1 326 325 327
36 1 1280 1279 1281
37 1 644 643 645
38 1 1421 1420 1422
39 1 872 871 873
40 1 2282 2281 2283
41 1 2234 2233 2235
42 1 1862 1861 1863
43 1 2252 2251 2253
44 1 956 955 957
45 1 584 583 585
46 1 2090 2089 2091
47 1 593 592 594
48 1 14 13 15
49 1 2192 2191 2193
50 1 1532 1531 1533
51 1 860 859 861
52 1 797 796 798
53 1 1526 1525 1527
54 1 1196 1195 1197
55 1 1256 1255 1257
56 1 134 133 135
57 1 1859 1858 1860
58 1 2093 2092 2094
59 1 1130 1129 1131
60 1 425 424 426
61 1 1172 1171 1173
62 1 659 658 660
63 1 2267 2266 2268
64 1 1943 1942 1944
65 1 2279 2278 2280
66 1 605 604 606
67 1 1556 1555 1557
68 1 833 832 834
69 1 1739 1738 1740
70 1 1625 1624 1626
71 1 1799 1798 1800
72 1 476 475 477
73 1 566 565 567
74 1 908 907 909
75 1 80 79 81
76 1 1652 1651 1653
77 1 1244 1243 1245
78 1 89 88 90
79 1 728 727 729
80 1 1649 1648 1650
81 1 1709 1708 1710
82 1 542 541 543
83 1 119 118 120
84 1 1457 1456 1458
85 1 932 931 933
86 1 947 946 948
87 1 1466 1465 1467
88 1 1928 1927 1929
89 1 278 277 279
90 1 2396 2395 2397
91 1 464 463 465
92 1 1292 1291 1293
93 1 1784 1783 1785
94 1 1781 1780 1782
95 1 416 415 417
96 1 1460 1459 1461
97 1 689 688 690
98 1 1481 1480 1482
99 1 1133 1132 1134
100 1 1607 1606 1608
101 1 284 283 285
102 1 920 919 921
103 1 722 721 723
104 1 905 904 906
105 1 1670 1669 1671
106 1 2111 2110 2112
107 1 314 313 315
108 1 980 979 981
109 1 2327 2326 2328
110 1 443 442 444
111 1 482 481 483
112 1 1838 1837 1839
113 1 2096 2095 2097
114 1 1070 1069 1071
115 1 2006 2005 2007
116 1 2228 2227 2229
117 1 233 232 234
118 1 551 550 552
119 1 1826 1825 1827
120 1 1268 1267 1269
121 1 221 220 222
122 1 527 526 528
123 1 2360 2359 2361
124 1 1334 1333 1335
125 1 293 292 294
126 1 1571 1570 1572
127 1 341 340 342
128 1 5 4 6
129 1 1925 1924 1926
130 1 329 328 330
131 1 629 628 630
132 1 347 346 348
133 1 779 778 780
134 1 824 823 825
135 1 224 223 225
136 1 191 190 192
137 1 335 334 336
138 1 1355 1354 1356
139 1 1301 1300 1302
140 1 2198 2197 2199
141 1 1964 1963 1965
142 1 194 193 195
143 1 389 388 390
144 1 2342 2341 2343
145 1 521 520 522
146 1 1199 1198 1200
147 1 992 991 993
148 1 890 889 891
149 1 731 730 732
150 1 2387 2386 2388
151 1 2132 2131 2133
152 1 1871 1870 1872
153 1 455 454 456
154 1 1103 1102 1104
155 1 1823 1822 1824
156 1 1067 1066 1068
157 1 176 175 177
158 1 1604 1603 1605
159 1 98 97 99
160 1 1304 1303 1305
161 1 1757 1756 1758
162 1 1475 1474 1476
163 1 539 538 540
164 1 2105 2104 2106
165 1 116 115 117
166 1 1562 1561 1563
167 1 1661 1660 1662
168 1 1637 1636 1638
169 1 623 622 624
170 1 2384 2383 2385
171 1 2240 2239 2241
172 1 2276 2275 2277
173 1 1289 1288 1290
174 1 2288 2287 2289
175 1 2051 2050 2052
176 1 506 505 507
177 1 878 877 879
178 1 218 217 219
179 1 2162 2161 2163
180 1 1478 1477 1479
181 1 1013 1012 1014
182 1 2150 2149 2151
183 1 803 802 804
184 1 1142 1141 1143
185 1 752 751 753
186 1 998 997 999
187 1 845 844 846
188 1 2204 2203 2205
189 1 494 493 495
190 1 743 742 744
191 1 140 139 141
192 1 2147 2146 2148
193 1 1760 1759 1761
194 1 746 745 747
195 1 215 214 216
196 1 1427 1426 1428
197 1 458 457 459
198 1 161 160 162
199 1 2183 2182 2184
200 1 1514 1513 1515
201 1 1694 1693 1695
202 1 302 301 303
203 1 2237 2236 2238
204 1 1391 1390 1392
205 1 1796 1795 1797
206 1 1100 1099 1101
207 1 497 496 498
208 1 1553 1552 1554
209 1 155 154 156
210 1 254 253 255
211 1 11 10 12
212 1 2348 2347 2349
213 1 1868 1867 1869
214 1 1433 1432 1434
215 1 968 967 969
216 1 1937 1936 1938
217 1 503 502 504
218 1 1163 1162 1164
219 1 1973 1972 1974
220 1 1097 1096 1098
221 1 1439 1438 1440
222 1 290 289 291
223 1 269 268 270
224 1 2195 2194 2196
225 1 197 196 198
226 1 1697 1696 1698
227 1 491 490 492
228 1 1379 1378 1380
229 1 1523 1522 1524
230 1 1217 1216 1218
231 1 680 679 681
232 1 2156 2155 2157
233 1 2000 1999 2001
234 1 1529 1528 1530
235 1 806 805 807
236 1 374 373 375
237 1 1370 1369 1371
238 1 2399 2398 2400
239 1 710 709 711
240 1 1715 1714 1716
241 1 800 799 801
242 1 1382 1381 1383
243 1 185 184 186
244 1 1610 1609 1611
245 1 296 295 297
246 1 2141 2140 2142
247 1 386 385 387
248 1 578 577 579
249 1 695 694 696
250 1 761 760 762
251 1 2045 2044 2046
252 1 1079 1078 1080
253 1 524 523 525
254 1 884 883 885
255 1 1430 1429 1431
256 1 704 703 705
257 1 815 814 816
258 1 1751 1750 1752
259 1 485 484 486
260 1 1688 1687 1689
261 1 167 166 168
262 1 1508 1507 1509
263 1 479 478 480
264 1 2300 2299 2301
265 1 1157 1156 1158
266 1 263 262 264
267 1 1400 1399 1401
268 1 1415 1414 1416
269 1 470 469 471
270 1 1286 1285 1287
271 1 2003 2002 2004
272 1 914 913 915
273 1 707 706 708
274 1 2060 2059 2061
275 1 839 838 840
276 1 821 820 822
277 1 1484 1483 1485
278 1 893 892 894
279 1 1595 1594 1596
280 1 1193 1192 1194
281 1 431 430 432
282 1 1445 1444 1446
283 1 1259 1258 1260
284 1 1643 1642 1644
285 1 2363 2362 2364
286 1 2339 2338 2340
287 1 1325 1324 1326
288 1 2027 2026 2028
289 1 1352 1351 1353
290 1 1820 1819 1821
291 1 1622 1621 1623
292 1 683 682 684
293 1 1061 1060 1062
294 1 1154 1153 1155
295 1 1124 1123 1125
296 1 1004 1003 1005
297 1 1808 1807 1809
298 1 1541 1540 1542
299 1 854 853 855
300 1 143 142 144
301 1 1874 1873 1875
302 1 2039 2038 2040
303 1 2075 2074 2076
304 1 1919 1918 1920
305 1 1253 1252 1254
306 1 1658 1657 1659
307 1 935 934 936
308 1 1031 1030 1032
309 1 1805 1804 1806
310 1 1046 1045 1047
311 1 1010 1009 1011
312 1 1955 1954 1956
313 1 1811 1810 1812
314 1 1406 1405 1407
315 1 1001 1000 1002
316 1 1736 1735 1737
317 1 611 610 612
318 1 1727 1726 1728
319 1 1094 1093 1095
320 1 1226 1225 1227
321 1 2393 2392 2394
322 1 308 307 309
323 1 248 247 249
324 1 1247 1246 1248
325 1 836 835 837
326 1 1931 1930 1932
327 1 1997 1996 1998
328 1 2102 2101 2103
329 1 1184 1183 1185
330 1 440 439 441
331 1 1340 1339 1341
332 1 227 226 228
333 1 1319 1318 1320
334 1 1844 1843 1845
335 1 1127 1126 1128
336 1 1394 1393 1395
337 1 1580 1579 1581
338 1 1262 1261 1263
339 1 1109 1108 1110
340 1 434 433 435
341 1 257 256 258
342 1 62 61 63
343 1 2381 2380 2382
344 1 851 850 852
345 1 1565 1564 1566
346 1 857 856 858
347 1 1700 1699 1701
348 1 1271 1270 1272
349 1 530 529 531
350 1 2246 2245 2247
351 1 794 793 795
352 1 332 331 333
353 1 2012 2011 2013
354 1 1706 1705 1707
355 1 941 940 942
356 1 773 772 774
357 1 1511 1510 1512
358 1 1328 1327 1329
359 1 1958 1957 1959
360 1 1490 1489 1491
361 1 1676 1675 1677
362 1 614 613 615
363 1 1691 1690 1692
364 1 467 466 468
365 1 1121 1120 1122
366 1 404 403 405
367 1 938 937 939
368 1 1967 1966 1968
369 1 1175 1174 1176
370 1 2357 2356 2358
371 1 1502 1501 1503
372 1 1118 1117 1119
373 1 1043 1042 1044
374 1 230 229 231
375 1 1535 1534 1536
376 1 1832 1831 1833
377 1 203 202 204
378 1 1733 1732 1734
379 1 2306 2305 2307
380 1 287 286 288
381 1 2177 2176 2178
382 1 1181 1180 1182
383 1 1685 1684 1686
384 1 1160 1159 1161
385 1 1598 1597 1599
386 1 887 886 888
387 1 866 865 867
388 1 1343 1342 1344
389 1 995 994 996
390 1 950 949 951
391 1 1166 1165 1167
392 1 674 673 675
393 1 500 499 501
394 1 188 187 189
395 1 86 85 87
396 1 1028 1027 1029
397 1 1055 1054 1056
398 1 740 739 741
399 1 1574 1573 1575
400 1 137 136 138
401 1 1214 1213 1215
402 1 1232 1231 1233
403 1 965 964 966
404 1 953 952 954
405 1 170 169 171
406 1 581 580 582
407 1 1076 1075 1077
408 1 59 58 60
409 1 74 73 75
410 1 1703 1702 1704
411 1 1772 1771 1773
412 1 1283 1282 1284
413 1 1346 1345 1347
414 1 266 265 267
415 1 2030 2029 2031
416 1 1544 1543 1545
417 1 2321 2320 2322
418 1 1520 1519 1521
419 1 560 559 561
420 1 1682 1681 1683
421 1 863 862 864
422 1 1952 1951 1953
423 1 32 31 33
424 1 380 379 381
425 1 1295 1294 1296
426 1 1016 1015 1017
427 1 125 124 126
428 1 515 514 516
429 1 2054 2053 2055
430 1 173 172 174
431 1 923 922 924
432 1 827 826 828
433 1 638 637 639
434 1 164 163 165
435 1 2201 2200 2202
436 1 1922 1921 1923
437 1 509 508 510
438 1 2249 2248 2250
439 1 2057 2056 2058
440 1 47 46 48
441 1 17 16 18
442 1 242 241 243
443 1 2372 2371 2373
444 1 1886 1885 1887
445 1 1367 1366 1368
446 1 323 322 324
447 1 1865 1864 1866
448 1 944 943 945
449 1 1361 1360 1362
450 1 1385 1384 1386
451 1 1679 1678 1680
452 1 1880 1879 1881
453 1 2336 2335 2337
454 1 428 427 429
455 1 311 310 312
456 1 68 67 69
457 1 1241 1240 1242
458 1 1019 1018 1020
459 1 959 958 960
460 1 1835 1834 1836
461 1 1583 1582 1584
462 1 1961 1960 1962
463 1 1058 1057 1059
464 1 2 1 3
465 1 548 547 549
466 1 902 901 903
467 1 734 733 735
468 1 410 409 411
469 1 1091 1090 1092
470 1 1316 1315 1317
471 1 2120 2119 2121
472 1 1667 1666 1668
473 1 359 358 360
474 1 1376 1375 1377
475 1 1409 1408 1410
476 1 20 19 21
477 1 1856 1855 1857
478 1 1178 1177 1179
479 1 1112 1111 1113
480 1 2114 2113 2115
481 1 1883 1882 1884
482 1 1322 1321 1323
483 1 2099 2098 2100
484 1 1892 1891 1893
485 1 2009 2008 2010
486 1 449 448 450
487 1 149 148 150
488 1 1220 1219 1221
489 1 1913 1912 1914
490 1 785 784 786
491 1 1976 1975 1977
492 1 35 34 36
493 1 989 988 990
494 1 2324 2323 2325
495 1 1151 1150 1152
496 1 53 52 54
497 1 701 700 702
498 1 2144 2143 2145
499 1 2024 2023 2025
500 1 92 91 93
501 1 812 811 813
502 1 899 898 900
503 1 200 199 201
504 1 647 646 648
505 1 719 718 720
506 1 1802 1801 1803
507 1 917 916 918
508 1 2117 2116 2118
509 1 2261 2260 2262
510 1 1910 1909 1911
511 1 536 535 537
512 1 2189 2188 2190
513 1 1982 1981 1983
514 1 338 337 339
515 1 473 472 474
516 1 1064 1063 1065
517 1 110 109 111
518 1 362 361 363
519 1 653 652 654
520 1 1073 1072 1074
521 1 1559 1558 1560
522 1 1577 1576 1578
523 1 875 874 876
524 1 2123 2122 2124
525 1 1115 1114 1116
526 1 1850 1849 1851
527 1 1211 1210 1212
528 1 419 418 420
529 1 1451 1450 1452
530 1 848 847 849
531 1 686 685 687
532 1 662 661 663
533 1 2354 2353 2355
534 1 2081 2080 2082
535 1 305 304 306
536 1 2375 2374 2376
537 1 2315 2314 2316
538 1 29 28 30
539 1 1592 1591 1593
540 1 2243 2242 2244
541 1 1037 1036 1038
542 1 77 76 78
543 1 1364 1363 1365
544 1 1895 1894 1896
545 1 452 451 453
546 1 1979 1978 1980
547 1 1550 1549 1551
548 1 2087 2086 2088
549 1 95 94 96
550 1 713 712 714
551 1 2159 2158 2160
552 1 911 910 912
553 1 830 829 831
554 1 971 970 972
555 1 317 316 318
556 1 1907 1906 1908
557 1 929 928 930
558 1 1139 1138 1140
559 1 260 259 261
560 1 2168 2167 2169
561 1 2351 2350 2352
562 1 2174 2173 2175
563 1 1718 1717 1719
564 1 1721 1720 1722
565 1 1778 1777 1779
566 1 962 961 963
567 1 1085 1084 1086
568 1 641 640 642
569 1 2312 2311 2313
570 1 776 775 777
571 1 1631 1630 1632
572 1 602 601 603
573 1 1994 1993 1995
574 1 1436 1435 1437
575 1 1307 1306 1308
576 1 809 808 810
577 1 788 787 789
578 1 1748 1747 1749
579 1 113 112 114
580 1 1373 1372 1374
581 1 1313 1312 1314
582 1 2165 2164 2166
583 1 2135 2134 2136
584 1 1793 1792 1794
585 1 71 70 72
586 1 128 127 129
587 1 1136 1135 1137
588 1 608 607 609
589 1 1358 1357 1359
590 1 1052 1051 1053
591 1 392 391 393
592 1 758 757 759
593 1 1463 1462 1464
594 1 1496 1495 1497
595 1 2216 2215 2217
596 1 2213 2212 2214
597 1 1187 1186 1188
598 1 881 880 882
599 1 2264 2263 2265
600 1 1712 1711 1713
601 1 2129 2128 2130
602 1 1454 1453 1455
603 1 656 655 657
604 1 1814 1813 1815
605 1 209 208 210
606 1 1337 1336 1338
607 1 1616 1615 1617
608 1 2108 2107 2109
609 1 1349 1348 1350
610 1 1274 1273 1275
611 1 869 868 870
612 1 635 634 636
613 1 2138 2137 2139
614 1 554 553 555
615 1 617 616 618
616 1 38 37 39
617 1 1505 1504 1506
618 1 2021 2020 2022
619 1 677 676 678
620 1 2270 2269 2271
621 1 107 106 108
622 1 1829 1828 1830
623 1 1298 1297 1299
624 1 275 274 276
625 1 512 511 513
626 1 2210 2209 2211
627 1 1673 1672 1674
628 1 1766 1765 1767
629 1 1949 1948 1950
630 1 1988 1987 1989
631 1 1208 1207 1209
632 1 2036 2035 2037
633 1 2186 2185 2187
634 1 2033 2032 2034
635 1 557 556 558
636 1 50 49 51
637 1 2126 2125 2127
638 1 395 394 396
639 1 767 766 768
640 1 755 754 756
641 1 977 976 978
642 1 668 667 669
643 1 1169 1168 1170
644 1 1568 1567 1569
645 1 41 40 42
646 1 1724 1723 1725
647 1 1745 1744 1746
648 1 764 763 765
649 1 2285 2284 2286
650 1 1847 1846 1848
651 1 2258 2257 2259
652 1 1970 1969 1971
653 1 2042 2041 2043
654 1 131 130 132
655 1 65 64 66
656 1 1787 1786 1788
657 1 1403 1402 1404
658 1 2072 2071 2073
659 1 2369 2368 2370
660 1 986 985 987
661 1 1034 1033 1035
662 1 368 367 369
663 1 272 271 273
664 1 632 631 633
665 1 716 715 717
666 1 461 460 462
667 1 2378 2377 2379
668 1 1223 1222 1224
669 1 206 205 207
670 1 1205 1204 1206
671 1 101 100 102
672 1 2222 2221 2223
673 1 1493 1492 1494
674 1 1898 1897 1899
675 1 1769 1768 1770
676 1 1586 1585 1587
677 1 1889 1888 1890
678 1 2063 2062 2064
679 1 371 370 372
680 1 281 280 282
681 1 1250 1249 1251
682 1 23 22 24
683 1 1775 1774 1776
684 1 1442 1441 1443
685 1 2048 2047 2049
686 1 437 436 438
687 1 1229 1228 1230
688 1 1619 1618 1620
689 1 2297 2296 2298
690 1 398 397 399
691 1 1985 1984 1986
692 1 533 532 534
693 1 251 250 252
694 1 2318 2317 2319
695 1 1202 1201 1203
696 1 518 517 519
697 1 575 574 576
698 1 320 319 321
699 1 1547 1546 1548
700 1 2390 2389 2391
701 1 842 841 843
702 1 356 355 357
703 1 2273 2272 2274
704 1 545 544 546
705 1 1388 1387 1389
706 1 245 244 246
707 1 563 562 564
708 1 8 7 9
709 1 344 343 345
710 1 770 769 771
711 1 1991 1990 1992
712 1 1310 1309 1311
713 1 1934 1933 1935
714 1 1472 1471 1473
715 1 2219 2218 2220
716 1 1946 1945 1947
717 1 599 598 600
718 1 1418 1417 1419
719 1 650 649 651
720 1 1331 1330 1332
721 1 2294 2293 2295
722 1 2291 2290 2292
723 1 2018 2017 2019
724 1 2153 2152 2154
725 1 1664 1663 1665
726 1 818 817 819
727 1 83 82 84
728 1 1904 1903 1905
729 1 1145 1144 1146
730 1 56 55 57
731 1 1397 1396 1398
732 1 983 982 984
733 1 2180 2179 2181
734 1 749 748 750
735 1 698 697 699
736 1 2015 2014 2016
737 1 737 736 738
738 1 1589 1588 1590
739 1 239 238 240
740 1 2231 2230 2232
741 1 2069 2068 2070
742 1 2084 2083 2085
743 1 1940 1939 1941
744 1 1655 1654 1656
745 1 791 790 792
746 1 26 25 27
747 1 1022 1021 1023
748 1 1106 1105 1107
749 1 1469 1468 1470
750 1 299 298 300
751 1 401 400 402
752 1 1082 1081 1083
753 1 236 235 237
754 1 1007 1006 1008
755 1 1901 1900 1902
756 1 1877 1876 1878
757 1 2066 2065 2067
758 1 365 364 366
759 1 1754 1753 1755
760 1 122 121 123
761 1 587 586 588
762 1 1601 1600 1602
763 1 1763 1762 1764
764 1 1646 1645 1647
765 1 569 568 570
766 1 1517 1516 1518
767 1 692 691 693
768 1 1790 1789 1791
769 1 1817 1816 1818
770 1 590 589 591
771 1 620 619 621
772 1 1634 1633 1635
773 1 1088 1087 1089
774 1 1730 1729 1731
775 1 2309 2308 2310
776 1 1499 1498 1500
777 1 2255 2254 2256
778 1 974 973 975
779 1 377 376 378
780 1 1148 1147 1149
781 1 383 382 384
782 1 2225 2224 2226
783 1 626 625 627
784 1 782 781 783
785 1 446 445 447
786 1 671 670 672
787 1 896 895 897
788 1 1628 1627 1629
789 1 2303 2302 2304
790 1 1265 1264 1266
791 1 44 43 45
792 1 2207 2206 2208
793 1 1412 1411 1413
794 1 725 724 726
795 1 1448 1447 1449
796 1 212 211 213
797 1 1235 1234 1236
798 1 488 487 489
799 1 350 349 351
800 1 1538 1537 1539
