# LAMMPS data file 

6000 atoms
4000 bonds
2000 angles

2 atom types
1 bond types
1 angle types

0 40.0 xlo xhi
0 40.0 ylo yhi
0 40.0 zlo zhi

Atoms

1 1 1 -1.054 8.36 34.16 32.76 
2 1 2 0.527 8.945882276618294 34.91695032726366 32.76 
3 1 2 0.527 8.945882276618294 33.40304967273634 32.76 
4 2 1 -1.054 20.48 0.28 28.32 
5 2 2 0.527 21.065882276618296 1.036950327263661 28.32 
6 2 2 0.527 21.065882276618296 -0.47695032726366116 28.32 
7 3 1 -1.054 27.400000000000002 27.88 15.32 
8 3 2 0.527 27.985882276618298 28.63695032726366 15.32 
9 3 2 0.527 27.985882276618298 27.123049672736336 15.32 
10 4 1 -1.054 36.32 13.959999999999999 13.24 
11 4 2 0.527 36.9058822766183 14.71695032726366 13.24 
12 4 2 0.527 36.9058822766183 13.203049672736338 13.24 
13 5 1 -1.054 6.840000000000001 35.52 8.44 
14 5 2 0.527 7.425882276618295 36.27695032726366 8.44 
15 5 2 0.527 7.425882276618295 34.76304967273634 8.44 
16 6 1 -1.054 4.32 21.880000000000003 28.52 
17 6 2 0.527 4.905882276618295 22.636950327263662 28.52 
18 6 2 0.527 4.905882276618295 21.12304967273634 28.52 
19 7 1 -1.054 15.120000000000001 26.080000000000002 34.96 
20 7 2 0.527 15.705882276618295 26.83695032726366 34.96 
21 7 2 0.527 15.705882276618295 25.32304967273634 34.96 
22 8 1 -1.054 10.88 34.64 21.200000000000003 
23 8 2 0.527 11.465882276618295 35.39695032726366 21.200000000000003 
24 8 2 0.527 11.465882276618295 33.88304967273634 21.200000000000003 
25 9 1 -1.054 38.6 38.56 37.839999999999996 
26 9 2 0.527 39.185882276618294 39.31695032726366 37.839999999999996 
27 9 2 0.527 39.185882276618294 37.803049672736336 37.839999999999996 
28 10 1 -1.054 7.039999999999999 29.6 15.52 
29 10 2 0.527 7.625882276618294 30.35695032726366 15.52 
30 10 2 0.527 7.625882276618294 28.84304967273634 15.52 
31 11 1 -1.054 9.120000000000001 25.240000000000002 27.839999999999996 
32 11 2 0.527 9.705882276618295 25.99695032726366 27.839999999999996 
33 11 2 0.527 9.705882276618295 24.48304967273634 27.839999999999996 
34 12 1 -1.054 4.44 38.36 1.7199999999999998 
35 12 2 0.527 5.025882276618296 39.11695032726366 1.7199999999999998 
36 12 2 0.527 5.025882276618296 37.60304967273634 1.7199999999999998 
37 13 1 -1.054 30.560000000000002 8.2 25.16 
38 13 2 0.527 31.1458822766183 8.95695032726366 25.16 
39 13 2 0.527 31.1458822766183 7.443049672736338 25.16 
40 14 1 -1.054 16.84 5.08 25.560000000000002 
41 14 2 0.527 17.425882276618296 5.836950327263661 25.560000000000002 
42 14 2 0.527 17.425882276618296 4.323049672736339 25.560000000000002 
43 15 1 -1.054 25.16 2.2 28.4 
44 15 2 0.527 25.745882276618296 2.956950327263661 28.4 
45 15 2 0.527 25.745882276618296 1.4430496727363389 28.4 
46 16 1 -1.054 25.52 16.68 1.6 
47 16 2 0.527 26.105882276618296 17.43695032726366 1.6 
48 16 2 0.527 26.105882276618296 15.923049672736338 1.6 
49 17 1 -1.054 20.36 14.92 14.32 
50 17 2 0.527 20.9458822766183 15.676950327263661 14.32 
51 17 2 0.527 20.9458822766183 14.163049672736339 14.32 
52 18 1 -1.054 35.4 5.2 27.639999999999997 
53 18 2 0.527 35.9858822766183 5.9569503272636615 27.639999999999997 
54 18 2 0.527 35.9858822766183 4.443049672736339 27.639999999999997 
55 19 1 -1.054 13.360000000000001 9.280000000000001 29.0 
56 19 2 0.527 13.945882276618295 10.03695032726366 29.0 
57 19 2 0.527 13.945882276618295 8.52304967273634 29.0 
58 20 1 -1.054 15.280000000000001 36.08 28.279999999999998 
59 20 2 0.527 15.865882276618295 36.836950327263665 28.279999999999998 
60 20 2 0.527 15.865882276618295 35.32304967273634 28.279999999999998 
61 21 1 -1.054 30.0 22.519999999999996 34.64 
62 21 2 0.527 30.585882276618296 23.27695032726366 34.64 
63 21 2 0.527 30.585882276618296 21.763049672736337 34.64 
64 22 1 -1.054 35.16 33.32 32.92 
65 22 2 0.527 35.745882276618296 34.07695032726366 32.92 
66 22 2 0.527 35.745882276618296 32.56304967273634 32.92 
67 23 1 -1.054 16.12 39.76 19.16 
68 23 2 0.527 16.705882276618297 40.51695032726366 19.16 
69 23 2 0.527 16.705882276618297 39.00304967273634 19.16 
70 24 1 -1.054 36.68 3.5999999999999996 12.12 
71 24 2 0.527 37.2658822766183 4.356950327263661 12.12 
72 24 2 0.527 37.2658822766183 2.8430496727363384 12.12 
73 25 1 -1.054 21.04 38.28 20.08 
74 25 2 0.527 21.6258822766183 39.03695032726366 20.08 
75 25 2 0.527 21.6258822766183 37.523049672736335 20.08 
76 26 1 -1.054 8.88 12.0 24.8 
77 26 2 0.527 9.465882276618295 12.756950327263661 24.8 
78 26 2 0.527 9.465882276618295 11.243049672736339 24.8 
79 27 1 -1.054 23.52 26.080000000000002 33.28 
80 27 2 0.527 24.105882276618296 26.83695032726366 33.28 
81 27 2 0.527 24.105882276618296 25.32304967273634 33.28 
82 28 1 -1.054 8.28 28.04 19.4 
83 28 2 0.527 8.865882276618294 28.79695032726366 19.4 
84 28 2 0.527 8.865882276618294 27.283049672736336 19.4 
85 29 1 -1.054 21.240000000000002 27.12 1.52 
86 29 2 0.527 21.825882276618298 27.876950327263664 1.52 
87 29 2 0.527 21.825882276618298 26.36304967273634 1.52 
88 30 1 -1.054 19.08 26.96 16.759999999999998 
89 30 2 0.527 19.665882276618294 27.716950327263664 16.759999999999998 
90 30 2 0.527 19.665882276618294 26.20304967273634 16.759999999999998 
91 31 1 -1.054 4.8 5.36 15.4 
92 31 2 0.527 5.385882276618295 6.116950327263662 15.4 
93 31 2 0.527 5.385882276618295 4.603049672736339 15.4 
94 32 1 -1.054 35.84 2.8000000000000003 34.519999999999996 
95 32 2 0.527 36.425882276618296 3.5569503272636616 34.519999999999996 
96 32 2 0.527 36.425882276618296 2.043049672736339 34.519999999999996 
97 33 1 -1.054 34.36 32.04 12.44 
98 33 2 0.527 34.9458822766183 32.796950327263666 12.44 
99 33 2 0.527 34.9458822766183 31.28304967273634 12.44 
100 34 1 -1.054 16.599999999999998 23.64 30.52 
101 34 2 0.527 17.185882276618294 24.39695032726366 30.52 
102 34 2 0.527 17.185882276618294 22.883049672736337 30.52 
103 35 1 -1.054 19.68 4.72 3.3600000000000003 
104 35 2 0.527 20.265882276618296 5.476950327263661 3.3600000000000003 
105 35 2 0.527 20.265882276618296 3.9630496727363385 3.3600000000000003 
106 36 1 -1.054 28.759999999999998 32.8 13.0 
107 36 2 0.527 29.345882276618298 33.55695032726366 13.0 
108 36 2 0.527 29.345882276618298 32.04304967273634 13.0 
109 37 1 -1.054 35.16 36.800000000000004 13.799999999999999 
110 37 2 0.527 35.745882276618296 37.556950327263664 13.799999999999999 
111 37 2 0.527 35.745882276618296 36.04304967273634 13.799999999999999 
112 38 1 -1.054 38.239999999999995 23.919999999999998 28.599999999999998 
113 38 2 0.527 38.825882276618294 24.67695032726366 28.599999999999998 
114 38 2 0.527 38.825882276618294 23.16304967273634 28.599999999999998 
115 39 1 -1.054 0.24 1.44 23.2 
116 39 2 0.527 0.8258822766182949 2.196950327263661 23.2 
117 39 2 0.527 0.8258822766182949 0.6830496727363388 23.2 
118 40 1 -1.054 8.64 19.16 8.76 
119 40 2 0.527 9.225882276618295 19.91695032726366 8.76 
120 40 2 0.527 9.225882276618295 18.403049672736337 8.76 
121 41 1 -1.054 20.44 36.28 17.16 
122 41 2 0.527 21.025882276618297 37.03695032726366 17.16 
123 41 2 0.527 21.025882276618297 35.52304967273634 17.16 
124 42 1 -1.054 27.160000000000004 26.840000000000003 0.8 
125 42 2 0.527 27.7458822766183 27.596950327263663 0.8 
126 42 2 0.527 27.7458822766183 26.08304967273634 0.8 
127 43 1 -1.054 29.96 13.600000000000001 27.919999999999998 
128 43 2 0.527 30.545882276618297 14.356950327263663 27.919999999999998 
129 43 2 0.527 30.545882276618297 12.84304967273634 27.919999999999998 
130 44 1 -1.054 18.560000000000002 6.48 15.32 
131 44 2 0.527 19.145882276618295 7.236950327263662 15.32 
132 44 2 0.527 19.145882276618295 5.723049672736339 15.32 
133 45 1 -1.054 30.04 25.96 28.919999999999998 
134 45 2 0.527 30.6258822766183 26.71695032726366 28.919999999999998 
135 45 2 0.527 30.6258822766183 25.20304967273634 28.919999999999998 
136 46 1 -1.054 13.120000000000001 15.64 19.8 
137 46 2 0.527 13.705882276618295 16.39695032726366 19.8 
138 46 2 0.527 13.705882276618295 14.88304967273634 19.8 
139 47 1 -1.054 6.800000000000001 34.92 2.56 
140 47 2 0.527 7.385882276618295 35.67695032726366 2.56 
141 47 2 0.527 7.385882276618295 34.163049672736335 2.56 
142 48 1 -1.054 22.040000000000003 24.24 5.04 
143 48 2 0.527 22.6258822766183 24.99695032726366 5.04 
144 48 2 0.527 22.6258822766183 23.48304967273634 5.04 
145 49 1 -1.054 35.04 39.16 22.44 
146 49 2 0.527 35.6258822766183 39.91695032726366 22.44 
147 49 2 0.527 35.6258822766183 38.40304967273634 22.44 
148 50 1 -1.054 31.28 1.6 18.48 
149 50 2 0.527 31.865882276618297 2.356950327263661 18.48 
150 50 2 0.527 31.865882276618297 0.8430496727363389 18.48 
151 51 1 -1.054 30.48 8.0 27.72 
152 51 2 0.527 31.065882276618296 8.756950327263661 27.72 
153 51 2 0.527 31.065882276618296 7.243049672736339 27.72 
154 52 1 -1.054 6.44 12.96 3.2800000000000002 
155 52 2 0.527 7.025882276618295 13.716950327263662 3.2800000000000002 
156 52 2 0.527 7.025882276618295 12.20304967273634 3.2800000000000002 
157 53 1 -1.054 33.04 19.04 35.64 
158 53 2 0.527 33.6258822766183 19.79695032726366 35.64 
159 53 2 0.527 33.6258822766183 18.28304967273634 35.64 
160 54 1 -1.054 21.200000000000003 39.56 33.72 
161 54 2 0.527 21.7858822766183 40.316950327263655 33.72 
162 54 2 0.527 21.7858822766183 38.803049672736336 33.72 
163 55 1 -1.054 14.12 24.16 31.44 
164 55 2 0.527 14.705882276618294 24.91695032726366 31.44 
165 55 2 0.527 14.705882276618294 23.403049672736337 31.44 
166 56 1 -1.054 27.0 4.96 36.760000000000005 
167 56 2 0.527 27.5858822766183 5.716950327263661 36.760000000000005 
168 56 2 0.527 27.5858822766183 4.203049672736339 36.760000000000005 
169 57 1 -1.054 1.6400000000000001 5.04 26.880000000000003 
170 57 2 0.527 2.225882276618295 5.796950327263661 26.880000000000003 
171 57 2 0.527 2.225882276618295 4.283049672736339 26.880000000000003 
172 58 1 -1.054 31.16 29.96 38.879999999999995 
173 58 2 0.527 31.745882276618296 30.71695032726366 38.879999999999995 
174 58 2 0.527 31.745882276618296 29.203049672736338 38.879999999999995 
175 59 1 -1.054 13.4 32.28 2.96 
176 59 2 0.527 13.985882276618295 33.03695032726366 2.96 
177 59 2 0.527 13.985882276618295 31.52304967273634 2.96 
178 60 1 -1.054 28.799999999999997 16.200000000000003 14.2 
179 60 2 0.527 29.385882276618297 16.956950327263662 14.2 
180 60 2 0.527 29.385882276618297 15.44304967273634 14.2 
181 61 1 -1.054 38.0 25.12 14.04 
182 61 2 0.527 38.58588227661829 25.87695032726366 14.04 
183 61 2 0.527 38.58588227661829 24.363049672736338 14.04 
184 62 1 -1.054 36.44 10.32 17.72 
185 62 2 0.527 37.0258822766183 11.076950327263662 17.72 
186 62 2 0.527 37.0258822766183 9.563049672736339 17.72 
187 63 1 -1.054 34.2 33.48 39.48 
188 63 2 0.527 34.785882276618295 34.236950327263656 39.48 
189 63 2 0.527 34.785882276618295 32.72304967273634 39.48 
190 64 1 -1.054 27.799999999999997 7.48 17.92 
191 64 2 0.527 28.385882276618297 8.236950327263662 17.92 
192 64 2 0.527 28.385882276618297 6.723049672736339 17.92 
193 65 1 -1.054 27.080000000000002 10.48 32.08 
194 65 2 0.527 27.665882276618298 11.236950327263662 32.08 
195 65 2 0.527 27.665882276618298 9.72304967273634 32.08 
196 66 1 -1.054 11.92 5.36 29.04 
197 66 2 0.527 12.505882276618294 6.116950327263662 29.04 
198 66 2 0.527 12.505882276618294 4.603049672736339 29.04 
199 67 1 -1.054 12.68 34.4 28.24 
200 67 2 0.527 13.265882276618296 35.15695032726366 28.24 
201 67 2 0.527 13.265882276618296 33.64304967273634 28.24 
202 68 1 -1.054 12.6 14.68 34.0 
203 68 2 0.527 13.185882276618294 15.436950327263661 34.0 
204 68 2 0.527 13.185882276618294 13.923049672736338 34.0 
205 69 1 -1.054 13.72 3.88 10.440000000000001 
206 69 2 0.527 14.305882276618295 4.636950327263661 10.440000000000001 
207 69 2 0.527 14.305882276618295 3.1230496727363386 10.440000000000001 
208 70 1 -1.054 28.52 6.640000000000001 23.56 
209 70 2 0.527 29.105882276618296 7.396950327263662 23.56 
210 70 2 0.527 29.105882276618296 5.883049672736339 23.56 
211 71 1 -1.054 25.08 23.72 1.04 
212 71 2 0.527 25.665882276618298 24.47695032726366 1.04 
213 71 2 0.527 25.665882276618298 22.96304967273634 1.04 
214 72 1 -1.054 27.919999999999998 31.36 25.240000000000002 
215 72 2 0.527 28.505882276618294 32.116950327263666 25.240000000000002 
216 72 2 0.527 28.505882276618294 30.60304967273634 25.240000000000002 
217 73 1 -1.054 26.12 37.36 23.799999999999997 
218 73 2 0.527 26.705882276618297 38.116950327263666 23.799999999999997 
219 73 2 0.527 26.705882276618297 36.60304967273634 23.799999999999997 
220 74 1 -1.054 5.04 9.559999999999999 36.88 
221 74 2 0.527 5.625882276618295 10.316950327263662 36.88 
222 74 2 0.527 5.625882276618295 8.80304967273634 36.88 
223 75 1 -1.054 28.4 5.76 26.0 
224 75 2 0.527 28.985882276618295 6.516950327263661 26.0 
225 75 2 0.527 28.985882276618295 5.0030496727363385 26.0 
226 76 1 -1.054 30.36 6.720000000000001 9.360000000000001 
227 76 2 0.527 30.9458822766183 7.476950327263662 9.360000000000001 
228 76 2 0.527 30.9458822766183 5.963049672736339 9.360000000000001 
229 77 1 -1.054 23.36 23.36 9.8 
230 77 2 0.527 23.945882276618295 24.11695032726366 9.8 
231 77 2 0.527 23.945882276618295 22.603049672736336 9.8 
232 78 1 -1.054 20.880000000000003 24.08 9.32 
233 78 2 0.527 21.4658822766183 24.83695032726366 9.32 
234 78 2 0.527 21.4658822766183 23.32304967273634 9.32 
235 79 1 -1.054 28.96 5.88 11.879999999999999 
236 79 2 0.527 29.545882276618297 6.636950327263661 11.879999999999999 
237 79 2 0.527 29.545882276618297 5.123049672736339 11.879999999999999 
238 80 1 -1.054 0.76 29.28 39.28 
239 80 2 0.527 1.345882276618295 30.03695032726366 39.28 
240 80 2 0.527 1.345882276618295 28.523049672736338 39.28 
241 81 1 -1.054 8.36 25.44 8.88 
242 81 2 0.527 8.945882276618294 26.19695032726366 8.88 
243 81 2 0.527 8.945882276618294 24.683049672736338 8.88 
244 82 1 -1.054 20.44 4.4 10.2 
245 82 2 0.527 21.025882276618297 5.156950327263661 10.2 
246 82 2 0.527 21.025882276618297 3.6430496727363386 10.2 
247 83 1 -1.054 10.120000000000001 20.44 38.04 
248 83 2 0.527 10.705882276618295 21.19695032726366 38.04 
249 83 2 0.527 10.705882276618295 19.683049672736338 38.04 
250 84 1 -1.054 27.919999999999998 11.84 35.4 
251 84 2 0.527 28.505882276618294 12.596950327263661 35.4 
252 84 2 0.527 28.505882276618294 11.083049672736339 35.4 
253 85 1 -1.054 16.52 9.040000000000001 39.24 
254 85 2 0.527 17.105882276618296 9.796950327263662 39.24 
255 85 2 0.527 17.105882276618296 8.28304967273634 39.24 
256 86 1 -1.054 1.0 5.84 38.56 
257 86 2 0.527 1.5858822766182952 6.596950327263661 38.56 
258 86 2 0.527 1.5858822766182952 5.083049672736339 38.56 
259 87 1 -1.054 15.64 36.32 24.4 
260 87 2 0.527 16.225882276618297 37.07695032726366 24.4 
261 87 2 0.527 16.225882276618297 35.56304967273634 24.4 
262 88 1 -1.054 21.64 21.12 38.16 
263 88 2 0.527 22.2258822766183 21.876950327263664 38.16 
264 88 2 0.527 22.2258822766183 20.363049672736338 38.16 
265 89 1 -1.054 11.120000000000001 13.32 18.96 
266 89 2 0.527 11.705882276618295 14.076950327263662 18.96 
267 89 2 0.527 11.705882276618295 12.563049672736339 18.96 
268 90 1 -1.054 29.24 30.4 8.4 
269 90 2 0.527 29.825882276618294 31.15695032726366 8.4 
270 90 2 0.527 29.825882276618294 29.64304967273634 8.4 
271 91 1 -1.054 19.439999999999998 24.72 1.0 
272 91 2 0.527 20.025882276618297 25.476950327263662 1.0 
273 91 2 0.527 20.025882276618297 23.96304967273634 1.0 
274 92 1 -1.054 19.92 3.2 34.36 
275 92 2 0.527 20.505882276618298 3.9569503272636615 34.36 
276 92 2 0.527 20.505882276618298 2.443049672736339 34.36 
277 93 1 -1.054 20.48 22.599999999999998 20.72 
278 93 2 0.527 21.065882276618296 23.35695032726366 20.72 
279 93 2 0.527 21.065882276618296 21.843049672736335 20.72 
280 94 1 -1.054 1.88 33.36 36.72 
281 94 2 0.527 2.465882276618295 34.11695032726366 36.72 
282 94 2 0.527 2.465882276618295 32.60304967273634 36.72 
283 95 1 -1.054 33.6 37.36 30.16 
284 95 2 0.527 34.185882276618294 38.116950327263666 30.16 
285 95 2 0.527 34.185882276618294 36.60304967273634 30.16 
286 96 1 -1.054 25.72 1.88 33.48 
287 96 2 0.527 26.3058822766183 2.636950327263661 33.48 
288 96 2 0.527 26.3058822766183 1.1230496727363388 33.48 
289 97 1 -1.054 31.92 33.08 33.96 
290 97 2 0.527 32.5058822766183 33.83695032726366 33.96 
291 97 2 0.527 32.5058822766183 32.32304967273634 33.96 
292 98 1 -1.054 19.72 32.160000000000004 14.68 
293 98 2 0.527 20.3058822766183 32.91695032726366 14.68 
294 98 2 0.527 20.3058822766183 31.40304967273634 14.68 
295 99 1 -1.054 11.0 11.28 0.2 
296 99 2 0.527 11.585882276618296 12.03695032726366 0.2 
297 99 2 0.527 11.585882276618296 10.523049672736338 0.2 
298 100 1 -1.054 38.16 29.64 2.7600000000000002 
299 100 2 0.527 38.745882276618296 30.39695032726366 2.7600000000000002 
300 100 2 0.527 38.745882276618296 28.883049672736337 2.7600000000000002 
301 101 1 -1.054 26.720000000000002 25.08 23.599999999999998 
302 101 2 0.527 27.3058822766183 25.83695032726366 23.599999999999998 
303 101 2 0.527 27.3058822766183 24.32304967273634 23.599999999999998 
304 102 1 -1.054 7.76 5.32 17.96 
305 102 2 0.527 8.345882276618294 6.076950327263662 17.96 
306 102 2 0.527 8.345882276618294 4.563049672736339 17.96 
307 103 1 -1.054 21.16 16.759999999999998 34.8 
308 103 2 0.527 21.745882276618296 17.51695032726366 34.8 
309 103 2 0.527 21.745882276618296 16.00304967273634 34.8 
310 104 1 -1.054 0.8 21.240000000000002 31.880000000000003 
311 104 2 0.527 1.385882276618295 21.99695032726366 31.880000000000003 
312 104 2 0.527 1.385882276618295 20.48304967273634 31.880000000000003 
313 105 1 -1.054 28.52 36.4 19.759999999999998 
314 105 2 0.527 29.105882276618296 37.156950327263665 19.759999999999998 
315 105 2 0.527 29.105882276618296 35.64304967273634 19.759999999999998 
316 106 1 -1.054 7.119999999999999 10.280000000000001 34.24 
317 106 2 0.527 7.705882276618294 11.03695032726366 34.24 
318 106 2 0.527 7.705882276618294 9.523049672736338 34.24 
319 107 1 -1.054 0.9199999999999999 27.400000000000002 29.88 
320 107 2 0.527 1.505882276618295 28.156950327263665 29.88 
321 107 2 0.527 1.505882276618295 26.64304967273634 29.88 
322 108 1 -1.054 14.68 1.08 24.8 
323 108 2 0.527 15.265882276618294 1.8369503272636611 24.8 
324 108 2 0.527 15.265882276618294 0.32304967273633883 24.8 
325 109 1 -1.054 23.799999999999997 15.84 27.0 
326 109 2 0.527 24.385882276618297 16.596950327263663 27.0 
327 109 2 0.527 24.385882276618297 15.08304967273634 27.0 
328 110 1 -1.054 7.84 7.960000000000001 23.96 
329 110 2 0.527 8.425882276618296 8.716950327263662 23.96 
330 110 2 0.527 8.425882276618296 7.20304967273634 23.96 
331 111 1 -1.054 8.68 3.7199999999999998 14.32 
332 111 2 0.527 9.265882276618294 4.476950327263661 14.32 
333 111 2 0.527 9.265882276618294 2.9630496727363385 14.32 
334 112 1 -1.054 24.96 22.080000000000002 14.04 
335 112 2 0.527 25.545882276618297 22.836950327263665 14.04 
336 112 2 0.527 25.545882276618297 21.32304967273634 14.04 
337 113 1 -1.054 27.919999999999998 37.2 37.160000000000004 
338 113 2 0.527 28.505882276618294 37.95695032726366 37.160000000000004 
339 113 2 0.527 28.505882276618294 36.44304967273634 37.160000000000004 
340 114 1 -1.054 18.919999999999998 14.52 0.43999999999999995 
341 114 2 0.527 19.505882276618294 15.27695032726366 0.43999999999999995 
342 114 2 0.527 19.505882276618294 13.763049672736338 0.43999999999999995 
343 115 1 -1.054 5.6000000000000005 6.5600000000000005 5.5200000000000005 
344 115 2 0.527 6.185882276618296 7.316950327263662 5.5200000000000005 
345 115 2 0.527 6.185882276618296 5.803049672736339 5.5200000000000005 
346 116 1 -1.054 39.48 31.48 15.72 
347 116 2 0.527 40.0658822766183 32.23695032726366 15.72 
348 116 2 0.527 40.0658822766183 30.72304967273634 15.72 
349 117 1 -1.054 22.839999999999996 19.92 2.56 
350 117 2 0.527 23.425882276618296 20.67695032726366 2.56 
351 117 2 0.527 23.425882276618296 19.16304967273634 2.56 
352 118 1 -1.054 11.240000000000002 11.399999999999999 5.92 
353 118 2 0.527 11.825882276618296 12.15695032726366 5.92 
354 118 2 0.527 11.825882276618296 10.643049672736337 5.92 
355 119 1 -1.054 36.24 36.04 24.439999999999998 
356 119 2 0.527 36.8258822766183 36.79695032726366 24.439999999999998 
357 119 2 0.527 36.8258822766183 35.28304967273634 24.439999999999998 
358 120 1 -1.054 30.64 38.239999999999995 16.32 
359 120 2 0.527 31.225882276618297 38.99695032726366 16.32 
360 120 2 0.527 31.225882276618297 37.483049672736335 16.32 
361 121 1 -1.054 30.96 9.24 6.36 
362 121 2 0.527 31.545882276618297 9.996950327263662 6.36 
363 121 2 0.527 31.545882276618297 8.483049672736339 6.36 
364 122 1 -1.054 13.120000000000001 21.76 28.439999999999998 
365 122 2 0.527 13.705882276618295 22.516950327263665 28.439999999999998 
366 122 2 0.527 13.705882276618295 21.00304967273634 28.439999999999998 
367 123 1 -1.054 3.16 22.040000000000003 0.4 
368 123 2 0.527 3.745882276618295 22.796950327263662 0.4 
369 123 2 0.527 3.745882276618295 21.28304967273634 0.4 
370 124 1 -1.054 38.16 15.920000000000002 0.16 
371 124 2 0.527 38.745882276618296 16.67695032726366 0.16 
372 124 2 0.527 38.745882276618296 15.163049672736339 0.16 
373 125 1 -1.054 18.84 25.96 20.84 
374 125 2 0.527 19.425882276618292 26.71695032726366 20.84 
375 125 2 0.527 19.425882276618292 25.20304967273634 20.84 
376 126 1 -1.054 15.2 18.68 0.8 
377 126 2 0.527 15.785882276618295 19.436950327263663 0.8 
378 126 2 0.527 15.785882276618295 17.92304967273634 0.8 
379 127 1 -1.054 21.32 34.64 29.72 
380 127 2 0.527 21.9058822766183 35.39695032726366 29.72 
381 127 2 0.527 21.9058822766183 33.88304967273634 29.72 
382 128 1 -1.054 29.119999999999997 37.28 14.32 
383 128 2 0.527 29.705882276618297 38.03695032726366 14.32 
384 128 2 0.527 29.705882276618297 36.52304967273634 14.32 
385 129 1 -1.054 5.24 35.12 14.64 
386 129 2 0.527 5.8258822766182945 35.876950327263664 14.64 
387 129 2 0.527 5.8258822766182945 34.36304967273634 14.64 
388 130 1 -1.054 23.68 31.560000000000002 29.16 
389 130 2 0.527 24.265882276618296 32.31695032726366 29.16 
390 130 2 0.527 24.265882276618296 30.80304967273634 29.16 
391 131 1 -1.054 4.96 34.04 33.28 
392 131 2 0.527 5.545882276618295 34.79695032726366 33.28 
393 131 2 0.527 5.545882276618295 33.28304967273634 33.28 
394 132 1 -1.054 33.48 4.28 37.36 
395 132 2 0.527 34.0658822766183 5.036950327263661 37.36 
396 132 2 0.527 34.0658822766183 3.5230496727363385 37.36 
397 133 1 -1.054 18.68 32.08 31.880000000000003 
398 133 2 0.527 19.265882276618296 32.836950327263665 31.880000000000003 
399 133 2 0.527 19.265882276618296 31.32304967273634 31.880000000000003 
400 134 1 -1.054 9.399999999999999 12.6 31.0 
401 134 2 0.527 9.985882276618295 13.356950327263661 31.0 
402 134 2 0.527 9.985882276618295 11.843049672736338 31.0 
403 135 1 -1.054 12.0 12.16 26.12 
404 135 2 0.527 12.585882276618294 12.916950327263661 26.12 
405 135 2 0.527 12.585882276618294 11.403049672736339 26.12 
406 136 1 -1.054 19.28 11.28 4.12 
407 136 2 0.527 19.865882276618294 12.03695032726366 4.12 
408 136 2 0.527 19.865882276618294 10.523049672736338 4.12 
409 137 1 -1.054 7.960000000000001 31.560000000000002 34.84 
410 137 2 0.527 8.545882276618295 32.31695032726366 34.84 
411 137 2 0.527 8.545882276618295 30.80304967273634 34.84 
412 138 1 -1.054 22.72 18.720000000000002 16.279999999999998 
413 138 2 0.527 23.305882276618295 19.476950327263662 16.279999999999998 
414 138 2 0.527 23.305882276618295 17.96304967273634 16.279999999999998 
415 139 1 -1.054 2.7600000000000002 19.64 28.56 
416 139 2 0.527 3.345882276618295 20.39695032726366 28.56 
417 139 2 0.527 3.345882276618295 18.883049672736337 28.56 
418 140 1 -1.054 34.24 25.76 12.2 
419 140 2 0.527 34.825882276618294 26.51695032726366 12.2 
420 140 2 0.527 34.825882276618294 25.00304967273634 12.2 
421 141 1 -1.054 38.92 18.84 11.92 
422 141 2 0.527 39.505882276618294 19.59695032726366 11.92 
423 141 2 0.527 39.505882276618294 18.083049672736337 11.92 
424 142 1 -1.054 35.24 29.28 10.48 
425 142 2 0.527 35.825882276618294 30.03695032726366 10.48 
426 142 2 0.527 35.825882276618294 28.523049672736338 10.48 
427 143 1 -1.054 2.52 14.2 36.120000000000005 
428 143 2 0.527 3.1058822766182947 14.95695032726366 36.120000000000005 
429 143 2 0.527 3.1058822766182947 13.443049672736338 36.120000000000005 
430 144 1 -1.054 8.0 14.84 15.36 
431 144 2 0.527 8.585882276618296 15.596950327263661 15.36 
432 144 2 0.527 8.585882276618296 14.083049672736339 15.36 
433 145 1 -1.054 20.2 13.84 29.8 
434 145 2 0.527 20.785882276618295 14.59695032726366 29.8 
435 145 2 0.527 20.785882276618295 13.083049672736337 29.8 
436 146 1 -1.054 20.8 20.84 8.08 
437 146 2 0.527 21.385882276618297 21.596950327263663 8.08 
438 146 2 0.527 21.385882276618297 20.08304967273634 8.08 
439 147 1 -1.054 9.44 5.44 39.0 
440 147 2 0.527 10.025882276618294 6.196950327263662 39.0 
441 147 2 0.527 10.025882276618294 4.683049672736339 39.0 
442 148 1 -1.054 3.6799999999999997 22.799999999999997 13.08 
443 148 2 0.527 4.265882276618295 23.55695032726366 13.08 
444 148 2 0.527 4.265882276618295 22.043049672736338 13.08 
445 149 1 -1.054 12.76 22.400000000000002 14.52 
446 149 2 0.527 13.345882276618294 23.156950327263665 14.52 
447 149 2 0.527 13.345882276618294 21.64304967273634 14.52 
448 150 1 -1.054 8.08 22.160000000000004 36.32 
449 150 2 0.527 8.665882276618294 22.916950327263663 36.32 
450 150 2 0.527 8.665882276618294 21.40304967273634 36.32 
451 151 1 -1.054 14.84 24.52 24.0 
452 151 2 0.527 15.425882276618294 25.276950327263663 24.0 
453 151 2 0.527 15.425882276618294 23.763049672736337 24.0 
454 152 1 -1.054 29.16 25.68 32.24 
455 152 2 0.527 29.745882276618296 26.436950327263663 32.24 
456 152 2 0.527 29.745882276618296 24.92304967273634 32.24 
457 153 1 -1.054 1.56 38.32 13.84 
458 153 2 0.527 2.145882276618295 39.07695032726366 13.84 
459 153 2 0.527 2.145882276618295 37.56304967273634 13.84 
460 154 1 -1.054 31.04 14.879999999999999 9.48 
461 154 2 0.527 31.6258822766183 15.636950327263662 9.48 
462 154 2 0.527 31.6258822766183 14.12304967273634 9.48 
463 155 1 -1.054 8.76 39.88 28.279999999999998 
464 155 2 0.527 9.345882276618294 40.636950327263655 28.279999999999998 
465 155 2 0.527 9.345882276618294 39.123049672736336 28.279999999999998 
466 156 1 -1.054 6.04 26.92 16.4 
467 156 2 0.527 6.625882276618294 27.67695032726366 16.4 
468 156 2 0.527 6.625882276618294 26.163049672736342 16.4 
469 157 1 -1.054 16.16 29.52 20.68 
470 157 2 0.527 16.745882276618296 30.276950327263663 20.68 
471 157 2 0.527 16.745882276618296 28.763049672736337 20.68 
472 158 1 -1.054 22.200000000000003 5.04 27.72 
473 158 2 0.527 22.7858822766183 5.796950327263661 27.72 
474 158 2 0.527 22.7858822766183 4.283049672736339 27.72 
475 159 1 -1.054 23.88 16.919999999999998 19.439999999999998 
476 159 2 0.527 24.465882276618295 17.67695032726366 19.439999999999998 
477 159 2 0.527 24.465882276618295 16.16304967273634 19.439999999999998 
478 160 1 -1.054 0.76 17.52 6.16 
479 160 2 0.527 1.345882276618295 18.276950327263663 6.16 
480 160 2 0.527 1.345882276618295 16.76304967273634 6.16 
481 161 1 -1.054 8.0 7.76 11.28 
482 161 2 0.527 8.585882276618296 8.516950327263661 11.28 
483 161 2 0.527 8.585882276618296 7.0030496727363385 11.28 
484 162 1 -1.054 26.32 25.48 8.36 
485 162 2 0.527 26.9058822766183 26.236950327263663 8.36 
486 162 2 0.527 26.9058822766183 24.723049672736337 8.36 
487 163 1 -1.054 32.96 35.36 4.8 
488 163 2 0.527 33.54588227661829 36.11695032726366 4.8 
489 163 2 0.527 33.54588227661829 34.60304967273634 4.8 
490 164 1 -1.054 35.64 8.56 34.96 
491 164 2 0.527 36.2258822766183 9.316950327263662 34.96 
492 164 2 0.527 36.2258822766183 7.803049672736338 34.96 
493 165 1 -1.054 2.4 23.799999999999997 10.4 
494 165 2 0.527 2.9858822766182946 24.55695032726366 10.4 
495 165 2 0.527 2.9858822766182946 23.043049672736338 10.4 
496 166 1 -1.054 38.6 34.92 36.08 
497 166 2 0.527 39.185882276618294 35.67695032726366 36.08 
498 166 2 0.527 39.185882276618294 34.163049672736335 36.08 
499 167 1 -1.054 38.36 26.400000000000002 9.32 
500 167 2 0.527 38.94588227661829 27.15695032726366 9.32 
501 167 2 0.527 38.94588227661829 25.64304967273634 9.32 
502 168 1 -1.054 13.16 21.720000000000002 6.24 
503 168 2 0.527 13.745882276618296 22.476950327263662 6.24 
504 168 2 0.527 13.745882276618296 20.96304967273634 6.24 
505 169 1 -1.054 28.479999999999997 14.28 32.76 
506 169 2 0.527 29.065882276618296 15.03695032726366 32.76 
507 169 2 0.527 29.065882276618296 13.523049672736338 32.76 
508 170 1 -1.054 34.519999999999996 30.96 4.680000000000001 
509 170 2 0.527 35.105882276618296 31.71695032726366 4.680000000000001 
510 170 2 0.527 35.105882276618296 30.20304967273634 4.680000000000001 
511 171 1 -1.054 12.4 30.68 35.8 
512 171 2 0.527 12.985882276618295 31.436950327263663 35.8 
513 171 2 0.527 12.985882276618295 29.92304967273634 35.8 
514 172 1 -1.054 24.16 33.239999999999995 3.4399999999999995 
515 172 2 0.527 24.745882276618296 33.99695032726366 3.4399999999999995 
516 172 2 0.527 24.745882276618296 32.483049672736335 3.4399999999999995 
517 173 1 -1.054 7.720000000000001 14.84 5.68 
518 173 2 0.527 8.305882276618295 15.596950327263661 5.68 
519 173 2 0.527 8.305882276618295 14.083049672736339 5.68 
520 174 1 -1.054 15.64 28.64 6.959999999999999 
521 174 2 0.527 16.225882276618297 29.39695032726366 6.959999999999999 
522 174 2 0.527 16.225882276618297 27.883049672736337 6.959999999999999 
523 175 1 -1.054 3.4399999999999995 0.8400000000000001 8.48 
524 175 2 0.527 4.025882276618295 1.5969503272636612 8.48 
525 175 2 0.527 4.025882276618295 0.0830496727363389 8.48 
526 176 1 -1.054 22.839999999999996 15.48 15.8 
527 176 2 0.527 23.425882276618296 16.236950327263663 15.8 
528 176 2 0.527 23.425882276618296 14.72304967273634 15.8 
529 177 1 -1.054 20.6 9.399999999999999 14.32 
530 177 2 0.527 21.185882276618297 10.156950327263662 14.32 
531 177 2 0.527 21.185882276618297 8.643049672736339 14.32 
532 178 1 -1.054 35.76 25.44 21.560000000000002 
533 178 2 0.527 36.3458822766183 26.19695032726366 21.560000000000002 
534 178 2 0.527 36.3458822766183 24.683049672736338 21.560000000000002 
535 179 1 -1.054 19.92 37.2 2.0 
536 179 2 0.527 20.505882276618298 37.95695032726366 2.0 
537 179 2 0.527 20.505882276618298 36.44304967273634 2.0 
538 180 1 -1.054 9.84 18.28 26.8 
539 180 2 0.527 10.425882276618294 19.03695032726366 26.8 
540 180 2 0.527 10.425882276618294 17.523049672736338 26.8 
541 181 1 -1.054 4.28 24.4 32.2 
542 181 2 0.527 4.8658822766182945 25.15695032726366 32.2 
543 181 2 0.527 4.8658822766182945 23.64304967273634 32.2 
544 182 1 -1.054 17.8 23.84 5.12 
545 182 2 0.527 18.385882276618297 24.59695032726366 5.12 
546 182 2 0.527 18.385882276618297 23.083049672736337 5.12 
547 183 1 -1.054 14.2 19.8 10.120000000000001 
548 183 2 0.527 14.785882276618294 20.55695032726366 10.120000000000001 
549 183 2 0.527 14.785882276618294 19.043049672736338 10.120000000000001 
550 184 1 -1.054 8.08 32.120000000000005 17.6 
551 184 2 0.527 8.665882276618294 32.876950327263664 17.6 
552 184 2 0.527 8.665882276618294 31.36304967273634 17.6 
553 185 1 -1.054 2.08 6.48 22.72 
554 185 2 0.527 2.665882276618295 7.236950327263662 22.72 
555 185 2 0.527 2.665882276618295 5.723049672736339 22.72 
556 186 1 -1.054 26.76 5.4 16.36 
557 186 2 0.527 27.345882276618298 6.156950327263662 16.36 
558 186 2 0.527 27.345882276618298 4.643049672736339 16.36 
559 187 1 -1.054 7.800000000000001 9.08 7.08 
560 187 2 0.527 8.385882276618295 9.836950327263661 7.08 
561 187 2 0.527 8.385882276618295 8.323049672736339 7.08 
562 188 1 -1.054 5.5600000000000005 7.800000000000001 32.36 
563 188 2 0.527 6.145882276618295 8.556950327263662 32.36 
564 188 2 0.527 6.145882276618295 7.043049672736339 32.36 
565 189 1 -1.054 16.72 24.96 8.72 
566 189 2 0.527 17.305882276618295 25.71695032726366 8.72 
567 189 2 0.527 17.305882276618295 24.203049672736338 8.72 
568 190 1 -1.054 39.04 21.36 35.2 
569 190 2 0.527 39.6258822766183 22.116950327263663 35.2 
570 190 2 0.527 39.6258822766183 20.60304967273634 35.2 
571 191 1 -1.054 10.84 8.6 8.8 
572 191 2 0.527 11.425882276618296 9.356950327263661 8.8 
573 191 2 0.527 11.425882276618296 7.843049672736338 8.8 
574 192 1 -1.054 13.520000000000001 27.040000000000003 21.520000000000003 
575 192 2 0.527 14.105882276618296 27.796950327263662 21.520000000000003 
576 192 2 0.527 14.105882276618296 26.28304967273634 21.520000000000003 
577 193 1 -1.054 17.72 3.2800000000000002 16.599999999999998 
578 193 2 0.527 18.305882276618295 4.0369503272636615 16.599999999999998 
579 193 2 0.527 18.305882276618295 2.523049672736339 16.599999999999998 
580 194 1 -1.054 1.92 37.879999999999995 0.8400000000000001 
581 194 2 0.527 2.5058822766182947 38.63695032726366 0.8400000000000001 
582 194 2 0.527 2.5058822766182947 37.123049672736336 0.8400000000000001 
583 195 1 -1.054 14.36 10.84 13.520000000000001 
584 195 2 0.527 14.945882276618294 11.596950327263663 13.520000000000001 
585 195 2 0.527 14.945882276618294 10.08304967273634 13.520000000000001 
586 196 1 -1.054 15.36 5.48 29.4 
587 196 2 0.527 15.945882276618295 6.236950327263662 29.4 
588 196 2 0.527 15.945882276618295 4.723049672736339 29.4 
589 197 1 -1.054 35.16 34.04 30.560000000000002 
590 197 2 0.527 35.745882276618296 34.79695032726366 30.560000000000002 
591 197 2 0.527 35.745882276618296 33.28304967273634 30.560000000000002 
592 198 1 -1.054 29.92 19.64 14.32 
593 198 2 0.527 30.505882276618298 20.39695032726366 14.32 
594 198 2 0.527 30.505882276618298 18.883049672736337 14.32 
595 199 1 -1.054 12.8 2.96 37.0 
596 199 2 0.527 13.385882276618295 3.7169503272636613 37.0 
597 199 2 0.527 13.385882276618295 2.2030496727363387 37.0 
598 200 1 -1.054 31.04 23.96 14.36 
599 200 2 0.527 31.6258822766183 24.71695032726366 14.36 
600 200 2 0.527 31.6258822766183 23.203049672736338 14.36 
601 201 1 -1.054 27.28 20.64 28.72 
602 201 2 0.527 27.8658822766183 21.39695032726366 28.72 
603 201 2 0.527 27.8658822766183 19.88304967273634 28.72 
604 202 1 -1.054 28.919999999999998 21.200000000000003 4.76 
605 202 2 0.527 29.505882276618294 21.956950327263662 4.76 
606 202 2 0.527 29.505882276618294 20.44304967273634 4.76 
607 203 1 -1.054 1.4000000000000001 10.920000000000002 11.319999999999999 
608 203 2 0.527 1.985882276618295 11.676950327263661 11.319999999999999 
609 203 2 0.527 1.985882276618295 10.163049672736339 11.319999999999999 
610 204 1 -1.054 16.240000000000002 2.88 1.7199999999999998 
611 204 2 0.527 16.825882276618294 3.636950327263661 1.7199999999999998 
612 204 2 0.527 16.825882276618294 2.1230496727363386 1.7199999999999998 
613 205 1 -1.054 21.240000000000002 28.56 10.04 
614 205 2 0.527 21.825882276618298 29.316950327263662 10.04 
615 205 2 0.527 21.825882276618298 27.803049672736336 10.04 
616 206 1 -1.054 16.52 11.479999999999999 18.36 
617 206 2 0.527 17.105882276618296 12.23695032726366 18.36 
618 206 2 0.527 17.105882276618296 10.723049672736337 18.36 
619 207 1 -1.054 27.799999999999997 5.96 30.8 
620 207 2 0.527 28.385882276618297 6.716950327263661 30.8 
621 207 2 0.527 28.385882276618297 5.203049672736339 30.8 
622 208 1 -1.054 1.48 25.16 35.92 
623 208 2 0.527 2.0658822766182947 25.916950327263663 35.92 
624 208 2 0.527 2.0658822766182947 24.403049672736337 35.92 
625 209 1 -1.054 11.879999999999999 31.200000000000003 12.48 
626 209 2 0.527 12.465882276618295 31.956950327263662 12.48 
627 209 2 0.527 12.465882276618295 30.44304967273634 12.48 
628 210 1 -1.054 9.68 14.96 11.92 
629 210 2 0.527 10.265882276618294 15.71695032726366 11.92 
630 210 2 0.527 10.265882276618294 14.203049672736338 11.92 
631 211 1 -1.054 25.36 30.28 23.119999999999997 
632 211 2 0.527 25.9458822766183 31.03695032726366 23.119999999999997 
633 211 2 0.527 25.9458822766183 29.523049672736338 23.119999999999997 
634 212 1 -1.054 5.8 18.799999999999997 15.16 
635 212 2 0.527 6.385882276618294 19.55695032726366 15.16 
636 212 2 0.527 6.385882276618294 18.043049672736338 15.16 
637 213 1 -1.054 39.12 31.64 18.52 
638 213 2 0.527 39.7058822766183 32.39695032726366 18.52 
639 213 2 0.527 39.7058822766183 30.88304967273634 18.52 
640 214 1 -1.054 10.440000000000001 19.0 20.44 
641 214 2 0.527 11.025882276618296 19.75695032726366 20.44 
642 214 2 0.527 11.025882276618296 18.243049672736337 20.44 
643 215 1 -1.054 7.199999999999999 13.4 32.839999999999996 
644 215 2 0.527 7.7858822766182945 14.156950327263662 32.839999999999996 
645 215 2 0.527 7.7858822766182945 12.643049672736339 32.839999999999996 
646 216 1 -1.054 21.76 32.559999999999995 12.64 
647 216 2 0.527 22.345882276618298 33.31695032726366 12.64 
648 216 2 0.527 22.345882276618298 31.803049672736336 12.64 
649 217 1 -1.054 20.0 3.5199999999999996 29.84 
650 217 2 0.527 20.585882276618296 4.276950327263661 29.84 
651 217 2 0.527 20.585882276618296 2.7630496727363383 29.84 
652 218 1 -1.054 4.5200000000000005 25.28 38.04 
653 218 2 0.527 5.105882276618296 26.03695032726366 38.04 
654 218 2 0.527 5.105882276618296 24.523049672736338 38.04 
655 219 1 -1.054 28.68 16.84 0.04 
656 219 2 0.527 29.265882276618296 17.59695032726366 0.04 
657 219 2 0.527 29.265882276618296 16.083049672736337 0.04 
658 220 1 -1.054 22.68 11.120000000000001 6.08 
659 220 2 0.527 23.265882276618296 11.876950327263662 6.08 
660 220 2 0.527 23.265882276618296 10.36304967273634 6.08 
661 221 1 -1.054 10.52 28.439999999999998 27.080000000000002 
662 221 2 0.527 11.105882276618296 29.19695032726366 27.080000000000002 
663 221 2 0.527 11.105882276618296 27.683049672736338 27.080000000000002 
664 222 1 -1.054 36.480000000000004 29.96 30.240000000000002 
665 222 2 0.527 37.0658822766183 30.71695032726366 30.240000000000002 
666 222 2 0.527 37.0658822766183 29.203049672736338 30.240000000000002 
667 223 1 -1.054 13.680000000000001 23.68 38.64 
668 223 2 0.527 14.265882276618296 24.43695032726366 38.64 
669 223 2 0.527 14.265882276618296 22.923049672736337 38.64 
670 224 1 -1.054 35.72 27.68 27.080000000000002 
671 224 2 0.527 36.3058822766183 28.43695032726366 27.080000000000002 
672 224 2 0.527 36.3058822766183 26.923049672736337 27.080000000000002 
673 225 1 -1.054 11.959999999999999 5.5600000000000005 20.72 
674 225 2 0.527 12.545882276618293 6.316950327263662 20.72 
675 225 2 0.527 12.545882276618293 4.803049672736339 20.72 
676 226 1 -1.054 12.56 13.680000000000001 22.799999999999997 
677 226 2 0.527 13.145882276618295 14.436950327263663 22.799999999999997 
678 226 2 0.527 13.145882276618295 12.92304967273634 22.799999999999997 
679 227 1 -1.054 35.2 21.64 5.5200000000000005 
680 227 2 0.527 35.785882276618295 22.396950327263664 5.5200000000000005 
681 227 2 0.527 35.785882276618295 20.88304967273634 5.5200000000000005 
682 228 1 -1.054 29.84 38.68 26.28 
683 228 2 0.527 30.425882276618296 39.43695032726366 26.28 
684 228 2 0.527 30.425882276618296 37.92304967273634 26.28 
685 229 1 -1.054 19.64 37.68 5.12 
686 229 2 0.527 20.225882276618297 38.43695032726366 5.12 
687 229 2 0.527 20.225882276618297 36.92304967273634 5.12 
688 230 1 -1.054 17.12 14.36 4.36 
689 230 2 0.527 17.705882276618294 15.11695032726366 4.36 
690 230 2 0.527 17.705882276618294 13.603049672736338 4.36 
691 231 1 -1.054 26.400000000000002 2.0 21.68 
692 231 2 0.527 26.985882276618298 2.7569503272636613 21.68 
693 231 2 0.527 26.985882276618298 1.243049672736339 21.68 
694 232 1 -1.054 20.2 33.8 39.92 
695 232 2 0.527 20.785882276618295 34.556950327263664 39.92 
696 232 2 0.527 20.785882276618295 33.04304967273634 39.92 
697 233 1 -1.054 3.92 36.2 22.68 
698 233 2 0.527 4.505882276618295 36.95695032726366 22.68 
699 233 2 0.527 4.505882276618295 35.443049672736336 22.68 
700 234 1 -1.054 9.64 4.48 25.52 
701 234 2 0.527 10.225882276618295 5.236950327263661 25.52 
702 234 2 0.527 10.225882276618295 3.7230496727363387 25.52 
703 235 1 -1.054 1.24 14.96 13.72 
704 235 2 0.527 1.825882276618295 15.71695032726366 13.72 
705 235 2 0.527 1.825882276618295 14.203049672736338 13.72 
706 236 1 -1.054 26.48 39.6 4.28 
707 236 2 0.527 27.065882276618296 40.35695032726366 4.28 
708 236 2 0.527 27.065882276618296 38.84304967273634 4.28 
709 237 1 -1.054 22.040000000000003 12.44 22.360000000000003 
710 237 2 0.527 22.6258822766183 13.19695032726366 22.360000000000003 
711 237 2 0.527 22.6258822766183 11.683049672736338 22.360000000000003 
712 238 1 -1.054 11.799999999999999 33.239999999999995 25.52 
713 238 2 0.527 12.385882276618293 33.99695032726366 25.52 
714 238 2 0.527 12.385882276618293 32.483049672736335 25.52 
715 239 1 -1.054 30.84 4.04 35.76 
716 239 2 0.527 31.425882276618296 4.796950327263661 35.76 
717 239 2 0.527 31.425882276618296 3.2830496727363387 35.76 
718 240 1 -1.054 9.559999999999999 7.0 28.88 
719 240 2 0.527 10.145882276618295 7.756950327263661 28.88 
720 240 2 0.527 10.145882276618295 6.243049672736339 28.88 
721 241 1 -1.054 23.159999999999997 31.92 22.12 
722 241 2 0.527 23.745882276618296 32.67695032726366 22.12 
723 241 2 0.527 23.745882276618296 31.163049672736342 22.12 
724 242 1 -1.054 38.239999999999995 34.76 8.48 
725 242 2 0.527 38.825882276618294 35.51695032726366 8.48 
726 242 2 0.527 38.825882276618294 34.00304967273634 8.48 
727 243 1 -1.054 35.96 35.44 3.84 
728 243 2 0.527 36.5458822766183 36.196950327263664 3.84 
729 243 2 0.527 36.5458822766183 34.68304967273634 3.84 
730 244 1 -1.054 1.56 37.92 34.96 
731 244 2 0.527 2.145882276618295 38.67695032726366 34.96 
732 244 2 0.527 2.145882276618295 37.163049672736335 34.96 
733 245 1 -1.054 3.3600000000000003 26.12 27.56 
734 245 2 0.527 3.945882276618295 26.876950327263664 27.56 
735 245 2 0.527 3.945882276618295 25.363049672736338 27.56 
736 246 1 -1.054 26.68 13.280000000000001 3.5199999999999996 
737 246 2 0.527 27.2658822766183 14.036950327263662 3.5199999999999996 
738 246 2 0.527 27.2658822766183 12.52304967273634 3.5199999999999996 
739 247 1 -1.054 35.72 2.8000000000000003 25.36 
740 247 2 0.527 36.3058822766183 3.5569503272636616 25.36 
741 247 2 0.527 36.3058822766183 2.043049672736339 25.36 
742 248 1 -1.054 39.48 33.56 2.08 
743 248 2 0.527 40.0658822766183 34.31695032726366 2.08 
744 248 2 0.527 40.0658822766183 32.803049672736336 2.08 
745 249 1 -1.054 2.3200000000000003 12.8 6.4 
746 249 2 0.527 2.905882276618295 13.556950327263662 6.4 
747 249 2 0.527 2.905882276618295 12.04304967273634 6.4 
748 250 1 -1.054 21.64 30.4 31.240000000000002 
749 250 2 0.527 22.2258822766183 31.15695032726366 31.240000000000002 
750 250 2 0.527 22.2258822766183 29.64304967273634 31.240000000000002 
751 251 1 -1.054 28.4 36.28 29.92 
752 251 2 0.527 28.985882276618295 37.03695032726366 29.92 
753 251 2 0.527 28.985882276618295 35.52304967273634 29.92 
754 252 1 -1.054 36.28 11.28 23.599999999999998 
755 252 2 0.527 36.8658822766183 12.03695032726366 23.599999999999998 
756 252 2 0.527 36.8658822766183 10.523049672736338 23.599999999999998 
757 253 1 -1.054 26.0 27.919999999999998 27.480000000000004 
758 253 2 0.527 26.5858822766183 28.67695032726366 27.480000000000004 
759 253 2 0.527 26.5858822766183 27.163049672736335 27.480000000000004 
760 254 1 -1.054 14.079999999999998 26.6 15.36 
761 254 2 0.527 14.665882276618294 27.35695032726366 15.36 
762 254 2 0.527 14.665882276618294 25.843049672736342 15.36 
763 255 1 -1.054 33.199999999999996 17.04 26.68 
764 255 2 0.527 33.785882276618295 17.796950327263662 26.68 
765 255 2 0.527 33.785882276618295 16.28304967273634 26.68 
766 256 1 -1.054 27.240000000000002 17.4 38.199999999999996 
767 256 2 0.527 27.825882276618298 18.15695032726366 38.199999999999996 
768 256 2 0.527 27.825882276618298 16.64304967273634 38.199999999999996 
769 257 1 -1.054 6.640000000000001 7.92 39.6 
770 257 2 0.527 7.225882276618295 8.676950327263661 39.6 
771 257 2 0.527 7.225882276618295 7.163049672736339 39.6 
772 258 1 -1.054 19.68 10.2 36.6 
773 258 2 0.527 20.265882276618296 10.956950327263662 36.6 
774 258 2 0.527 20.265882276618296 9.44304967273634 36.6 
775 259 1 -1.054 4.84 9.32 23.919999999999998 
776 259 2 0.527 5.425882276618294 10.07695032726366 23.919999999999998 
777 259 2 0.527 5.425882276618294 8.563049672736339 23.919999999999998 
778 260 1 -1.054 39.96 27.599999999999998 33.44 
779 260 2 0.527 40.5458822766183 28.35695032726366 33.44 
780 260 2 0.527 40.5458822766183 26.843049672736335 33.44 
781 261 1 -1.054 7.279999999999999 32.08 30.72 
782 261 2 0.527 7.8658822766182945 32.836950327263665 30.72 
783 261 2 0.527 7.8658822766182945 31.32304967273634 30.72 
784 262 1 -1.054 9.200000000000001 4.24 8.16 
785 262 2 0.527 9.785882276618295 4.9969503272636615 8.16 
786 262 2 0.527 9.785882276618295 3.4830496727363385 8.16 
787 263 1 -1.054 3.16 27.080000000000002 25.04 
788 263 2 0.527 3.745882276618295 27.836950327263665 25.04 
789 263 2 0.527 3.745882276618295 26.32304967273634 25.04 
790 264 1 -1.054 0.96 24.16 4.04 
791 264 2 0.527 1.5458822766182951 24.91695032726366 4.04 
792 264 2 0.527 1.5458822766182951 23.403049672736337 4.04 
793 265 1 -1.054 8.120000000000001 17.72 39.24 
794 265 2 0.527 8.705882276618295 18.476950327263662 39.24 
795 265 2 0.527 8.705882276618295 16.96304967273634 39.24 
796 266 1 -1.054 19.6 17.36 32.32 
797 266 2 0.527 20.185882276618297 18.116950327263663 32.32 
798 266 2 0.527 20.185882276618297 16.60304967273634 32.32 
799 267 1 -1.054 14.0 18.64 35.04 
800 267 2 0.527 14.585882276618294 19.396950327263664 35.04 
801 267 2 0.527 14.585882276618294 17.88304967273634 35.04 
802 268 1 -1.054 15.36 38.16 11.0 
803 268 2 0.527 15.945882276618295 38.91695032726366 11.0 
804 268 2 0.527 15.945882276618295 37.40304967273634 11.0 
805 269 1 -1.054 3.92 13.72 15.8 
806 269 2 0.527 4.505882276618295 14.476950327263662 15.8 
807 269 2 0.527 4.505882276618295 12.96304967273634 15.8 
808 270 1 -1.054 2.3200000000000003 29.8 6.959999999999999 
809 270 2 0.527 2.905882276618295 30.55695032726366 6.959999999999999 
810 270 2 0.527 2.905882276618295 29.043049672736338 6.959999999999999 
811 271 1 -1.054 6.4 29.84 21.0 
812 271 2 0.527 6.985882276618295 30.596950327263663 21.0 
813 271 2 0.527 6.985882276618295 29.083049672736337 21.0 
814 272 1 -1.054 33.56 28.599999999999998 7.199999999999999 
815 272 2 0.527 34.145882276618295 29.35695032726366 7.199999999999999 
816 272 2 0.527 34.145882276618295 27.84304967273634 7.199999999999999 
817 273 1 -1.054 17.64 36.6 36.44 
818 273 2 0.527 18.225882276618293 37.35695032726366 36.44 
819 273 2 0.527 18.225882276618293 35.84304967273634 36.44 
820 274 1 -1.054 26.16 1.7999999999999998 38.16 
821 274 2 0.527 26.745882276618296 2.556950327263661 38.16 
822 274 2 0.527 26.745882276618296 1.0430496727363388 38.16 
823 275 1 -1.054 35.480000000000004 14.399999999999999 16.72 
824 275 2 0.527 36.0658822766183 15.156950327263662 16.72 
825 275 2 0.527 36.0658822766183 13.643049672736339 16.72 
826 276 1 -1.054 29.92 34.92 23.279999999999998 
827 276 2 0.527 30.505882276618298 35.67695032726366 23.279999999999998 
828 276 2 0.527 30.505882276618298 34.163049672736335 23.279999999999998 
829 277 1 -1.054 22.919999999999998 6.28 36.64 
830 277 2 0.527 23.505882276618294 7.0369503272636615 36.64 
831 277 2 0.527 23.505882276618294 5.523049672736339 36.64 
832 278 1 -1.054 28.04 32.24 35.92 
833 278 2 0.527 28.625882276618295 32.99695032726366 35.92 
834 278 2 0.527 28.625882276618295 31.483049672736342 35.92 
835 279 1 -1.054 7.68 23.2 11.040000000000001 
836 279 2 0.527 8.265882276618296 23.95695032726366 11.040000000000001 
837 279 2 0.527 8.265882276618296 22.443049672736336 11.040000000000001 
838 280 1 -1.054 16.72 26.36 12.24 
839 280 2 0.527 17.305882276618295 27.116950327263663 12.24 
840 280 2 0.527 17.305882276618295 25.60304967273634 12.24 
841 281 1 -1.054 24.72 35.44 17.48 
842 281 2 0.527 25.3058822766183 36.196950327263664 17.48 
843 281 2 0.527 25.3058822766183 34.68304967273634 17.48 
844 282 1 -1.054 28.159999999999997 14.84 10.96 
845 282 2 0.527 28.745882276618296 15.596950327263661 10.96 
846 282 2 0.527 28.745882276618296 14.083049672736339 10.96 
847 283 1 -1.054 31.0 18.68 11.44 
848 283 2 0.527 31.5858822766183 19.436950327263663 11.44 
849 283 2 0.527 31.5858822766183 17.92304967273634 11.44 
850 284 1 -1.054 11.6 37.160000000000004 29.96 
851 284 2 0.527 12.185882276618294 37.91695032726366 29.96 
852 284 2 0.527 12.185882276618294 36.403049672736344 29.96 
853 285 1 -1.054 36.04 11.68 9.84 
854 285 2 0.527 36.6258822766183 12.436950327263661 9.84 
855 285 2 0.527 36.6258822766183 10.923049672736338 9.84 
856 286 1 -1.054 4.28 29.48 28.96 
857 286 2 0.527 4.8658822766182945 30.23695032726366 28.96 
858 286 2 0.527 4.8658822766182945 28.723049672736337 28.96 
859 287 1 -1.054 17.2 19.52 24.4 
860 287 2 0.527 17.785882276618295 20.276950327263663 24.4 
861 287 2 0.527 17.785882276618295 18.763049672736337 24.4 
862 288 1 -1.054 11.0 20.0 12.36 
863 288 2 0.527 11.585882276618296 20.75695032726366 12.36 
864 288 2 0.527 11.585882276618296 19.24304967273634 12.36 
865 289 1 -1.054 6.959999999999999 26.520000000000003 12.84 
866 289 2 0.527 7.545882276618294 27.276950327263663 12.84 
867 289 2 0.527 7.545882276618294 25.76304967273634 12.84 
868 290 1 -1.054 22.519999999999996 11.559999999999999 8.84 
869 290 2 0.527 23.105882276618296 12.31695032726366 8.84 
870 290 2 0.527 23.105882276618296 10.803049672736337 8.84 
871 291 1 -1.054 18.759999999999998 18.16 7.279999999999999 
872 291 2 0.527 19.345882276618294 18.916950327263663 7.279999999999999 
873 291 2 0.527 19.345882276618294 17.40304967273634 7.279999999999999 
874 292 1 -1.054 9.24 22.759999999999998 22.759999999999998 
875 292 2 0.527 9.825882276618294 23.516950327263658 22.759999999999998 
876 292 2 0.527 9.825882276618294 22.00304967273634 22.759999999999998 
877 293 1 -1.054 39.76 17.08 3.7199999999999998 
878 293 2 0.527 40.34588227661829 17.83695032726366 3.7199999999999998 
879 293 2 0.527 40.34588227661829 16.32304967273634 3.7199999999999998 
880 294 1 -1.054 2.2800000000000002 11.080000000000002 34.24 
881 294 2 0.527 2.865882276618295 11.836950327263661 34.24 
882 294 2 0.527 2.865882276618295 10.323049672736339 34.24 
883 295 1 -1.054 7.84 19.64 21.880000000000003 
884 295 2 0.527 8.425882276618296 20.39695032726366 21.880000000000003 
885 295 2 0.527 8.425882276618296 18.883049672736337 21.880000000000003 
886 296 1 -1.054 35.24 10.96 30.44 
887 296 2 0.527 35.825882276618294 11.716950327263662 30.44 
888 296 2 0.527 35.825882276618294 10.20304967273634 30.44 
889 297 1 -1.054 2.0 1.36 38.8 
890 297 2 0.527 2.5858822766182947 2.1169503272636616 38.8 
891 297 2 0.527 2.5858822766182947 0.6030496727363389 38.8 
892 298 1 -1.054 6.12 1.28 16.8 
893 298 2 0.527 6.705882276618294 2.0369503272636615 16.8 
894 298 2 0.527 6.705882276618294 0.5230496727363388 16.8 
895 299 1 -1.054 21.92 0.8400000000000001 24.0 
896 299 2 0.527 22.505882276618298 1.5969503272636612 24.0 
897 299 2 0.527 22.505882276618298 0.0830496727363389 24.0 
898 300 1 -1.054 8.24 2.96 33.0 
899 300 2 0.527 8.825882276618294 3.7169503272636613 33.0 
900 300 2 0.527 8.825882276618294 2.2030496727363387 33.0 
901 301 1 -1.054 27.080000000000002 12.2 25.240000000000002 
902 301 2 0.527 27.665882276618298 12.95695032726366 25.240000000000002 
903 301 2 0.527 27.665882276618298 11.443049672736338 25.240000000000002 
904 302 1 -1.054 20.92 28.799999999999997 25.28 
905 302 2 0.527 21.505882276618298 29.55695032726366 25.28 
906 302 2 0.527 21.505882276618298 28.043049672736338 25.28 
907 303 1 -1.054 35.32 3.24 30.08 
908 303 2 0.527 35.9058822766183 3.9969503272636615 30.08 
909 303 2 0.527 35.9058822766183 2.483049672736339 30.08 
910 304 1 -1.054 26.48 33.04 27.160000000000004 
911 304 2 0.527 27.065882276618296 33.79695032726366 27.160000000000004 
912 304 2 0.527 27.065882276618296 32.28304967273634 27.160000000000004 
913 305 1 -1.054 36.96 7.199999999999999 8.08 
914 305 2 0.527 37.5458822766183 7.956950327263661 8.08 
915 305 2 0.527 37.5458822766183 6.443049672736338 8.08 
916 306 1 -1.054 29.759999999999998 29.8 18.32 
917 306 2 0.527 30.345882276618298 30.55695032726366 18.32 
918 306 2 0.527 30.345882276618298 29.043049672736338 18.32 
919 307 1 -1.054 36.72 27.160000000000004 33.44 
920 307 2 0.527 37.3058822766183 27.916950327263663 33.44 
921 307 2 0.527 37.3058822766183 26.40304967273634 33.44 
922 308 1 -1.054 14.16 38.32 0.56 
923 308 2 0.527 14.745882276618294 39.07695032726366 0.56 
924 308 2 0.527 14.745882276618294 37.56304967273634 0.56 
925 309 1 -1.054 2.16 34.84 28.919999999999998 
926 309 2 0.527 2.745882276618295 35.59695032726366 28.919999999999998 
927 309 2 0.527 2.745882276618295 34.08304967273634 28.919999999999998 
928 310 1 -1.054 23.08 1.2 39.12 
929 310 2 0.527 23.665882276618294 1.9569503272636612 39.12 
930 310 2 0.527 23.665882276618294 0.4430496727363388 39.12 
931 311 1 -1.054 4.16 37.72 17.16 
932 311 2 0.527 4.745882276618294 38.47695032726366 17.16 
933 311 2 0.527 4.745882276618294 36.96304967273634 17.16 
934 312 1 -1.054 27.12 28.64 7.199999999999999 
935 312 2 0.527 27.705882276618297 29.39695032726366 7.199999999999999 
936 312 2 0.527 27.705882276618297 27.883049672736337 7.199999999999999 
937 313 1 -1.054 22.959999999999997 24.6 39.32 
938 313 2 0.527 23.545882276618293 25.35695032726366 39.32 
939 313 2 0.527 23.545882276618293 23.84304967273634 39.32 
940 314 1 -1.054 9.24 35.56 1.04 
941 314 2 0.527 9.825882276618294 36.31695032726366 1.04 
942 314 2 0.527 9.825882276618294 34.803049672736336 1.04 
943 315 1 -1.054 1.88 20.04 18.080000000000002 
944 315 2 0.527 2.465882276618295 20.796950327263662 18.080000000000002 
945 315 2 0.527 2.465882276618295 19.28304967273634 18.080000000000002 
946 316 1 -1.054 27.959999999999997 4.36 2.6 
947 316 2 0.527 28.545882276618293 5.116950327263661 2.6 
948 316 2 0.527 28.545882276618293 3.6030496727363386 2.6 
949 317 1 -1.054 37.839999999999996 19.52 23.52 
950 317 2 0.527 38.425882276618296 20.276950327263663 23.52 
951 317 2 0.527 38.425882276618296 18.763049672736337 23.52 
952 318 1 -1.054 19.28 36.28 12.64 
953 318 2 0.527 19.865882276618294 37.03695032726366 12.64 
954 318 2 0.527 19.865882276618294 35.52304967273634 12.64 
955 319 1 -1.054 17.36 16.240000000000002 22.360000000000003 
956 319 2 0.527 17.945882276618295 16.99695032726366 22.360000000000003 
957 319 2 0.527 17.945882276618295 15.483049672736339 22.360000000000003 
958 320 1 -1.054 0.4 37.08 16.439999999999998 
959 320 2 0.527 0.985882276618295 37.836950327263665 16.439999999999998 
960 320 2 0.527 0.985882276618295 36.32304967273634 16.439999999999998 
961 321 1 -1.054 7.720000000000001 22.72 33.0 
962 321 2 0.527 8.305882276618295 23.47695032726366 33.0 
963 321 2 0.527 8.305882276618295 21.963049672736336 33.0 
964 322 1 -1.054 13.040000000000001 8.68 25.16 
965 322 2 0.527 13.625882276618295 9.436950327263661 25.16 
966 322 2 0.527 13.625882276618295 7.923049672736338 25.16 
967 323 1 -1.054 31.6 22.759999999999998 27.160000000000004 
968 323 2 0.527 32.1858822766183 23.516950327263658 27.160000000000004 
969 323 2 0.527 32.1858822766183 22.00304967273634 27.160000000000004 
970 324 1 -1.054 36.0 16.4 23.2 
971 324 2 0.527 36.5858822766183 17.15695032726366 23.2 
972 324 2 0.527 36.5858822766183 15.643049672736337 23.2 
973 325 1 -1.054 19.48 23.799999999999997 11.36 
974 325 2 0.527 20.065882276618296 24.55695032726366 11.36 
975 325 2 0.527 20.065882276618296 23.043049672736338 11.36 
976 326 1 -1.054 0.52 5.24 11.16 
977 326 2 0.527 1.105882276618295 5.9969503272636615 11.16 
978 326 2 0.527 1.105882276618295 4.483049672736339 11.16 
979 327 1 -1.054 23.439999999999998 27.480000000000004 28.88 
980 327 2 0.527 24.025882276618297 28.236950327263663 28.88 
981 327 2 0.527 24.025882276618297 26.72304967273634 28.88 
982 328 1 -1.054 16.96 3.76 10.96 
983 328 2 0.527 17.545882276618293 4.516950327263661 10.96 
984 328 2 0.527 17.545882276618293 3.0030496727363385 10.96 
985 329 1 -1.054 28.84 10.68 6.6000000000000005 
986 329 2 0.527 29.425882276618296 11.436950327263663 6.6000000000000005 
987 329 2 0.527 29.425882276618296 9.92304967273634 6.6000000000000005 
988 330 1 -1.054 39.92 20.92 1.48 
989 330 2 0.527 40.505882276618294 21.67695032726366 1.48 
990 330 2 0.527 40.505882276618294 20.16304967273634 1.48 
991 331 1 -1.054 19.08 6.959999999999999 5.72 
992 331 2 0.527 19.665882276618294 7.71695032726366 5.72 
993 331 2 0.527 19.665882276618294 6.203049672736338 5.72 
994 332 1 -1.054 8.0 12.56 13.4 
995 332 2 0.527 8.585882276618296 13.316950327263662 13.4 
996 332 2 0.527 8.585882276618296 11.80304967273634 13.4 
997 333 1 -1.054 15.600000000000001 17.76 25.84 
998 333 2 0.527 16.185882276618294 18.51695032726366 25.84 
999 333 2 0.527 16.185882276618294 17.00304967273634 25.84 
1000 334 1 -1.054 4.88 7.32 12.96 
1001 334 2 0.527 5.465882276618295 8.076950327263662 12.96 
1002 334 2 0.527 5.465882276618295 6.563049672736339 12.96 
1003 335 1 -1.054 28.68 35.88 27.360000000000003 
1004 335 2 0.527 29.265882276618296 36.63695032726366 27.360000000000003 
1005 335 2 0.527 29.265882276618296 35.12304967273634 27.360000000000003 
1006 336 1 -1.054 20.04 15.68 5.68 
1007 336 2 0.527 20.6258822766183 16.436950327263663 5.68 
1008 336 2 0.527 20.6258822766183 14.92304967273634 5.68 
1009 337 1 -1.054 39.64 6.36 28.52 
1010 337 2 0.527 40.22588227661829 7.116950327263662 28.52 
1011 337 2 0.527 40.22588227661829 5.603049672736339 28.52 
1012 338 1 -1.054 31.880000000000003 28.68 31.240000000000002 
1013 338 2 0.527 32.4658822766183 29.43695032726366 31.240000000000002 
1014 338 2 0.527 32.4658822766183 27.923049672736337 31.240000000000002 
1015 339 1 -1.054 38.28 36.52 22.160000000000004 
1016 339 2 0.527 38.865882276618294 37.27695032726366 22.160000000000004 
1017 339 2 0.527 38.865882276618294 35.763049672736344 22.160000000000004 
1018 340 1 -1.054 29.92 15.8 5.64 
1019 340 2 0.527 30.505882276618298 16.556950327263664 5.64 
1020 340 2 0.527 30.505882276618298 15.04304967273634 5.64 
1021 341 1 -1.054 3.24 2.8000000000000003 16.4 
1022 341 2 0.527 3.825882276618295 3.5569503272636616 16.4 
1023 341 2 0.527 3.825882276618295 2.043049672736339 16.4 
1024 342 1 -1.054 22.919999999999998 6.879999999999999 5.64 
1025 342 2 0.527 23.505882276618294 7.63695032726366 5.64 
1026 342 2 0.527 23.505882276618294 6.123049672736338 5.64 
1027 343 1 -1.054 38.879999999999995 3.92 34.56 
1028 343 2 0.527 39.465882276618295 4.676950327263661 34.56 
1029 343 2 0.527 39.465882276618295 3.1630496727363386 34.56 
1030 344 1 -1.054 31.840000000000003 27.799999999999997 12.44 
1031 344 2 0.527 32.425882276618296 28.55695032726366 12.44 
1032 344 2 0.527 32.425882276618296 27.043049672736338 12.44 
1033 345 1 -1.054 18.48 18.64 4.4 
1034 345 2 0.527 19.065882276618296 19.396950327263664 4.4 
1035 345 2 0.527 19.065882276618296 17.88304967273634 4.4 
1036 346 1 -1.054 15.8 34.76 6.959999999999999 
1037 346 2 0.527 16.385882276618297 35.51695032726366 6.959999999999999 
1038 346 2 0.527 16.385882276618297 34.00304967273634 6.959999999999999 
1039 347 1 -1.054 33.64 6.2 5.4 
1040 347 2 0.527 34.22588227661829 6.9569503272636615 5.4 
1041 347 2 0.527 34.22588227661829 5.443049672736339 5.4 
1042 348 1 -1.054 3.96 4.8 32.599999999999994 
1043 348 2 0.527 4.545882276618295 5.556950327263661 32.599999999999994 
1044 348 2 0.527 4.545882276618295 4.0430496727363385 32.599999999999994 
1045 349 1 -1.054 15.32 13.16 16.12 
1046 349 2 0.527 15.905882276618295 13.916950327263661 16.12 
1047 349 2 0.527 15.905882276618295 12.403049672736339 16.12 
1048 350 1 -1.054 10.16 25.12 17.6 
1049 350 2 0.527 10.745882276618294 25.87695032726366 17.6 
1050 350 2 0.527 10.745882276618294 24.363049672736338 17.6 
1051 351 1 -1.054 1.48 34.0 13.879999999999999 
1052 351 2 0.527 2.0658822766182947 34.75695032726366 13.879999999999999 
1053 351 2 0.527 2.0658822766182947 33.24304967273634 13.879999999999999 
1054 352 1 -1.054 22.0 8.52 2.52 
1055 352 2 0.527 22.5858822766183 9.27695032726366 2.52 
1056 352 2 0.527 22.5858822766183 7.763049672736338 2.52 
1057 353 1 -1.054 39.24 24.48 2.24 
1058 353 2 0.527 39.825882276618294 25.23695032726366 2.24 
1059 353 2 0.527 39.825882276618294 23.723049672736337 2.24 
1060 354 1 -1.054 33.12 18.88 5.5200000000000005 
1061 354 2 0.527 33.7058822766183 19.636950327263662 5.5200000000000005 
1062 354 2 0.527 33.7058822766183 18.123049672736336 5.5200000000000005 
1063 355 1 -1.054 12.4 26.64 23.84 
1064 355 2 0.527 12.985882276618295 27.396950327263664 23.84 
1065 355 2 0.527 12.985882276618295 25.88304967273634 23.84 
1066 356 1 -1.054 18.84 31.48 22.68 
1067 356 2 0.527 19.425882276618292 32.23695032726366 22.68 
1068 356 2 0.527 19.425882276618292 30.72304967273634 22.68 
1069 357 1 -1.054 35.56 18.52 11.719999999999999 
1070 357 2 0.527 36.145882276618295 19.276950327263663 11.719999999999999 
1071 357 2 0.527 36.145882276618295 17.76304967273634 11.719999999999999 
1072 358 1 -1.054 32.2 34.44 17.2 
1073 358 2 0.527 32.785882276618295 35.196950327263664 17.2 
1074 358 2 0.527 32.785882276618295 33.68304967273634 17.2 
1075 359 1 -1.054 35.72 39.2 19.439999999999998 
1076 359 2 0.527 36.3058822766183 39.95695032726366 19.439999999999998 
1077 359 2 0.527 36.3058822766183 38.443049672736336 19.439999999999998 
1078 360 1 -1.054 8.68 19.04 33.0 
1079 360 2 0.527 9.265882276618294 19.79695032726366 33.0 
1080 360 2 0.527 9.265882276618294 18.28304967273634 33.0 
1081 361 1 -1.054 20.72 9.84 26.240000000000002 
1082 361 2 0.527 21.3058822766183 10.596950327263661 26.240000000000002 
1083 361 2 0.527 21.3058822766183 9.083049672736339 26.240000000000002 
1084 362 1 -1.054 15.36 22.0 16.72 
1085 362 2 0.527 15.945882276618295 22.756950327263663 16.72 
1086 362 2 0.527 15.945882276618295 21.24304967273634 16.72 
1087 363 1 -1.054 39.0 30.72 7.359999999999999 
1088 363 2 0.527 39.58588227661829 31.476950327263662 7.359999999999999 
1089 363 2 0.527 39.58588227661829 29.96304967273634 7.359999999999999 
1090 364 1 -1.054 35.08 25.240000000000002 0.48 
1091 364 2 0.527 35.6658822766183 25.99695032726366 0.48 
1092 364 2 0.527 35.6658822766183 24.48304967273634 0.48 
1093 365 1 -1.054 7.880000000000001 25.52 39.84 
1094 365 2 0.527 8.465882276618295 26.276950327263663 39.84 
1095 365 2 0.527 8.465882276618295 24.76304967273634 39.84 
1096 366 1 -1.054 15.120000000000001 38.519999999999996 3.04 
1097 366 2 0.527 15.705882276618295 39.27695032726366 3.04 
1098 366 2 0.527 15.705882276618295 37.76304967273634 3.04 
1099 367 1 -1.054 34.32 26.96 2.7600000000000002 
1100 367 2 0.527 34.9058822766183 27.716950327263664 2.7600000000000002 
1101 367 2 0.527 34.9058822766183 26.20304967273634 2.7600000000000002 
1102 368 1 -1.054 22.160000000000004 34.76 24.68 
1103 368 2 0.527 22.7458822766183 35.51695032726366 24.68 
1104 368 2 0.527 22.7458822766183 34.00304967273634 24.68 
1105 369 1 -1.054 29.68 20.12 23.2 
1106 369 2 0.527 30.265882276618296 20.87695032726366 23.2 
1107 369 2 0.527 30.265882276618296 19.363049672736338 23.2 
1108 370 1 -1.054 34.2 28.08 16.84 
1109 370 2 0.527 34.785882276618295 28.836950327263658 16.84 
1110 370 2 0.527 34.785882276618295 27.32304967273634 16.84 
1111 371 1 -1.054 2.0 26.520000000000003 6.5200000000000005 
1112 371 2 0.527 2.5858822766182947 27.276950327263663 6.5200000000000005 
1113 371 2 0.527 2.5858822766182947 25.76304967273634 6.5200000000000005 
1114 372 1 -1.054 1.92 7.640000000000001 35.6 
1115 372 2 0.527 2.5058822766182947 8.396950327263662 35.6 
1116 372 2 0.527 2.5058822766182947 6.883049672736339 35.6 
1117 373 1 -1.054 29.88 4.640000000000001 38.44 
1118 373 2 0.527 30.465882276618295 5.396950327263661 38.44 
1119 373 2 0.527 30.465882276618295 3.883049672736339 38.44 
1120 374 1 -1.054 37.08 14.64 26.04 
1121 374 2 0.527 37.6658822766183 15.39695032726366 26.04 
1122 374 2 0.527 37.6658822766183 13.883049672736337 26.04 
1123 375 1 -1.054 12.12 32.0 39.64 
1124 375 2 0.527 12.705882276618294 32.75695032726367 39.64 
1125 375 2 0.527 12.705882276618294 31.24304967273634 39.64 
1126 376 1 -1.054 2.96 7.4 10.56 
1127 376 2 0.527 3.5458822766182947 8.156950327263662 10.56 
1128 376 2 0.527 3.5458822766182947 6.643049672736339 10.56 
1129 377 1 -1.054 7.08 15.16 23.64 
1130 377 2 0.527 7.665882276618294 15.916950327263661 23.64 
1131 377 2 0.527 7.665882276618294 14.403049672736339 23.64 
1132 378 1 -1.054 16.8 33.72 37.24 
1133 378 2 0.527 17.385882276618293 34.47695032726366 37.24 
1134 378 2 0.527 17.385882276618293 32.96304967273634 37.24 
1135 379 1 -1.054 4.72 3.12 20.8 
1136 379 2 0.527 5.305882276618295 3.8769503272636614 20.8 
1137 379 2 0.527 5.305882276618295 2.363049672736339 20.8 
1138 380 1 -1.054 16.279999999999998 39.32 35.84 
1139 380 2 0.527 16.865882276618294 40.07695032726366 35.84 
1140 380 2 0.527 16.865882276618294 38.56304967273634 35.84 
1141 381 1 -1.054 24.439999999999998 32.519999999999996 35.4 
1142 381 2 0.527 25.025882276618297 33.27695032726366 35.4 
1143 381 2 0.527 25.025882276618297 31.763049672736337 35.4 
1144 382 1 -1.054 38.0 34.0 15.0 
1145 382 2 0.527 38.58588227661829 34.75695032726366 15.0 
1146 382 2 0.527 38.58588227661829 33.24304967273634 15.0 
1147 383 1 -1.054 25.76 37.160000000000004 1.92 
1148 383 2 0.527 26.345882276618298 37.91695032726366 1.92 
1149 383 2 0.527 26.345882276618298 36.403049672736344 1.92 
1150 384 1 -1.054 19.28 30.12 1.24 
1151 384 2 0.527 19.865882276618294 30.87695032726366 1.24 
1152 384 2 0.527 19.865882276618294 29.363049672736338 1.24 
1153 385 1 -1.054 19.2 6.640000000000001 20.08 
1154 385 2 0.527 19.785882276618295 7.396950327263662 20.08 
1155 385 2 0.527 19.785882276618295 5.883049672736339 20.08 
1156 386 1 -1.054 18.0 25.2 33.76 
1157 386 2 0.527 18.585882276618296 25.956950327263662 33.76 
1158 386 2 0.527 18.585882276618296 24.44304967273634 33.76 
1159 387 1 -1.054 37.120000000000005 33.839999999999996 20.36 
1160 387 2 0.527 37.7058822766183 34.59695032726366 20.36 
1161 387 2 0.527 37.7058822766183 33.08304967273634 20.36 
1162 388 1 -1.054 32.599999999999994 32.879999999999995 36.52 
1163 388 2 0.527 33.185882276618294 33.63695032726366 36.52 
1164 388 2 0.527 33.185882276618294 32.123049672736336 36.52 
1165 389 1 -1.054 27.480000000000004 7.52 2.2800000000000002 
1166 389 2 0.527 28.0658822766183 8.27695032726366 2.2800000000000002 
1167 389 2 0.527 28.0658822766183 6.763049672736338 2.2800000000000002 
1168 390 1 -1.054 31.36 13.200000000000001 13.08 
1169 390 2 0.527 31.9458822766183 13.956950327263662 13.08 
1170 390 2 0.527 31.9458822766183 12.44304967273634 13.08 
1171 391 1 -1.054 18.240000000000002 8.120000000000001 2.2800000000000002 
1172 391 2 0.527 18.825882276618294 8.876950327263662 2.2800000000000002 
1173 391 2 0.527 18.825882276618294 7.36304967273634 2.2800000000000002 
1174 392 1 -1.054 26.200000000000003 16.48 10.88 
1175 392 2 0.527 26.7858822766183 17.23695032726366 10.88 
1176 392 2 0.527 26.7858822766183 15.723049672736337 10.88 
1177 393 1 -1.054 6.680000000000001 2.48 26.04 
1178 393 2 0.527 7.265882276618295 3.2369503272636613 26.04 
1179 393 2 0.527 7.265882276618295 1.7230496727363387 26.04 
1180 394 1 -1.054 11.120000000000001 25.16 33.6 
1181 394 2 0.527 11.705882276618295 25.916950327263663 33.6 
1182 394 2 0.527 11.705882276618295 24.403049672736337 33.6 
1183 395 1 -1.054 32.36 4.36 24.28 
1184 395 2 0.527 32.9458822766183 5.116950327263661 24.28 
1185 395 2 0.527 32.9458822766183 3.6030496727363386 24.28 
1186 396 1 -1.054 29.759999999999998 1.92 30.84 
1187 396 2 0.527 30.345882276618298 2.6769503272636612 30.84 
1188 396 2 0.527 30.345882276618298 1.1630496727363389 30.84 
1189 397 1 -1.054 36.92 10.64 7.08 
1190 397 2 0.527 37.5058822766183 11.396950327263662 7.08 
1191 397 2 0.527 37.5058822766183 9.88304967273634 7.08 
1192 398 1 -1.054 1.88 37.519999999999996 26.64 
1193 398 2 0.527 2.465882276618295 38.27695032726366 26.64 
1194 398 2 0.527 2.465882276618295 36.76304967273634 26.64 
1195 399 1 -1.054 19.92 15.760000000000002 25.68 
1196 399 2 0.527 20.505882276618298 16.51695032726366 25.68 
1197 399 2 0.527 20.505882276618298 15.003049672736338 25.68 
1198 400 1 -1.054 20.52 34.88 7.640000000000001 
1199 400 2 0.527 21.105882276618296 35.63695032726366 7.640000000000001 
1200 400 2 0.527 21.105882276618296 34.123049672736336 7.640000000000001 
1201 401 1 -1.054 29.36 35.96 7.4399999999999995 
1202 401 2 0.527 29.945882276618295 36.71695032726366 7.4399999999999995 
1203 401 2 0.527 29.945882276618295 35.20304967273634 7.4399999999999995 
1204 402 1 -1.054 19.92 17.32 19.439999999999998 
1205 402 2 0.527 20.505882276618298 18.07695032726366 19.439999999999998 
1206 402 2 0.527 20.505882276618298 16.563049672736337 19.439999999999998 
1207 403 1 -1.054 0.08 14.64 33.08 
1208 403 2 0.527 0.6658822766182949 15.39695032726366 33.08 
1209 403 2 0.527 0.6658822766182949 13.883049672736337 33.08 
1210 404 1 -1.054 11.959999999999999 34.76 7.24 
1211 404 2 0.527 12.545882276618293 35.51695032726366 7.24 
1212 404 2 0.527 12.545882276618293 34.00304967273634 7.24 
1213 405 1 -1.054 15.600000000000001 18.919999999999998 15.08 
1214 405 2 0.527 16.185882276618294 19.67695032726366 15.08 
1215 405 2 0.527 16.185882276618294 18.16304967273634 15.08 
1216 406 1 -1.054 13.440000000000001 21.0 24.2 
1217 406 2 0.527 14.025882276618296 21.756950327263663 24.2 
1218 406 2 0.527 14.025882276618296 20.24304967273634 24.2 
1219 407 1 -1.054 0.8 11.399999999999999 14.52 
1220 407 2 0.527 1.385882276618295 12.15695032726366 14.52 
1221 407 2 0.527 1.385882276618295 10.643049672736337 14.52 
1222 408 1 -1.054 24.439999999999998 6.08 18.96 
1223 408 2 0.527 25.025882276618297 6.836950327263661 18.96 
1224 408 2 0.527 25.025882276618297 5.323049672736339 18.96 
1225 409 1 -1.054 18.16 22.28 28.119999999999997 
1226 409 2 0.527 18.745882276618296 23.036950327263664 28.119999999999997 
1227 409 2 0.527 18.745882276618296 21.52304967273634 28.119999999999997 
1228 410 1 -1.054 6.28 37.519999999999996 4.36 
1229 410 2 0.527 6.8658822766182945 38.27695032726366 4.36 
1230 410 2 0.527 6.8658822766182945 36.76304967273634 4.36 
1231 411 1 -1.054 39.16 16.96 34.56 
1232 411 2 0.527 39.745882276618296 17.71695032726366 34.56 
1233 411 2 0.527 39.745882276618296 16.203049672736338 34.56 
1234 412 1 -1.054 2.7600000000000002 13.040000000000001 32.160000000000004 
1235 412 2 0.527 3.345882276618295 13.796950327263662 32.160000000000004 
1236 412 2 0.527 3.345882276618295 12.28304967273634 32.160000000000004 
1237 413 1 -1.054 19.92 11.040000000000001 1.08 
1238 413 2 0.527 20.505882276618298 11.796950327263662 1.08 
1239 413 2 0.527 20.505882276618298 10.28304967273634 1.08 
1240 414 1 -1.054 15.280000000000001 11.639999999999999 34.4 
1241 414 2 0.527 15.865882276618295 12.39695032726366 34.4 
1242 414 2 0.527 15.865882276618295 10.883049672736337 34.4 
1243 415 1 -1.054 13.919999999999998 35.04 11.080000000000002 
1244 415 2 0.527 14.505882276618294 35.79695032726366 11.080000000000002 
1245 415 2 0.527 14.505882276618294 34.28304967273634 11.080000000000002 
1246 416 1 -1.054 14.6 31.68 29.28 
1247 416 2 0.527 15.185882276618294 32.43695032726366 29.28 
1248 416 2 0.527 15.185882276618294 30.92304967273634 29.28 
1249 417 1 -1.054 28.24 28.2 36.52 
1250 417 2 0.527 28.825882276618294 28.95695032726366 36.52 
1251 417 2 0.527 28.825882276618294 27.443049672736336 36.52 
1252 418 1 -1.054 34.36 12.2 34.68 
1253 418 2 0.527 34.9458822766183 12.95695032726366 34.68 
1254 418 2 0.527 34.9458822766183 11.443049672736338 34.68 
1255 419 1 -1.054 18.88 27.799999999999997 6.16 
1256 419 2 0.527 19.465882276618295 28.55695032726366 6.16 
1257 419 2 0.527 19.465882276618295 27.043049672736338 6.16 
1258 420 1 -1.054 31.64 27.599999999999998 36.32 
1259 420 2 0.527 32.2258822766183 28.35695032726366 36.32 
1260 420 2 0.527 32.2258822766183 26.843049672736335 36.32 
1261 421 1 -1.054 27.68 26.44 19.64 
1262 421 2 0.527 28.265882276618296 27.196950327263664 19.64 
1263 421 2 0.527 28.265882276618296 25.683049672736338 19.64 
1264 422 1 -1.054 29.04 39.64 9.92 
1265 422 2 0.527 29.625882276618295 40.39695032726365 9.92 
1266 422 2 0.527 29.625882276618295 38.88304967273634 9.92 
1267 423 1 -1.054 31.96 1.7999999999999998 12.32 
1268 423 2 0.527 32.5458822766183 2.556950327263661 12.32 
1269 423 2 0.527 32.5458822766183 1.0430496727363388 12.32 
1270 424 1 -1.054 32.519999999999996 7.199999999999999 37.879999999999995 
1271 424 2 0.527 33.105882276618296 7.956950327263661 37.879999999999995 
1272 424 2 0.527 33.105882276618296 6.443049672736338 37.879999999999995 
1273 425 1 -1.054 39.0 12.0 25.2 
1274 425 2 0.527 39.58588227661829 12.756950327263661 25.2 
1275 425 2 0.527 39.58588227661829 11.243049672736339 25.2 
1276 426 1 -1.054 34.08 19.36 18.560000000000002 
1277 426 2 0.527 34.6658822766183 20.11695032726366 18.560000000000002 
1278 426 2 0.527 34.6658822766183 18.60304967273634 18.560000000000002 
1279 427 1 -1.054 16.48 19.439999999999998 11.84 
1280 427 2 0.527 17.065882276618293 20.19695032726366 11.84 
1281 427 2 0.527 17.065882276618293 18.683049672736338 11.84 
1282 428 1 -1.054 30.72 35.12 36.52 
1283 428 2 0.527 31.3058822766183 35.876950327263664 36.52 
1284 428 2 0.527 31.3058822766183 34.36304967273634 36.52 
1285 429 1 -1.054 18.0 11.559999999999999 10.920000000000002 
1286 429 2 0.527 18.585882276618296 12.31695032726366 10.920000000000002 
1287 429 2 0.527 18.585882276618296 10.803049672736337 10.920000000000002 
1288 430 1 -1.054 15.920000000000002 37.76 32.68 
1289 430 2 0.527 16.505882276618294 38.51695032726366 32.68 
1290 430 2 0.527 16.505882276618294 37.00304967273634 32.68 
1291 431 1 -1.054 31.200000000000003 0.72 21.32 
1292 431 2 0.527 31.7858822766183 1.476950327263661 21.32 
1293 431 2 0.527 31.7858822766183 -0.03695032726366121 21.32 
1294 432 1 -1.054 12.72 12.08 2.48 
1295 432 2 0.527 13.305882276618295 12.836950327263661 2.48 
1296 432 2 0.527 13.305882276618295 11.323049672736339 2.48 
1297 433 1 -1.054 26.48 20.12 33.08 
1298 433 2 0.527 27.065882276618296 20.87695032726366 33.08 
1299 433 2 0.527 27.065882276618296 19.363049672736338 33.08 
1300 434 1 -1.054 4.24 17.96 11.479999999999999 
1301 434 2 0.527 4.8258822766182945 18.71695032726366 11.479999999999999 
1302 434 2 0.527 4.8258822766182945 17.203049672736338 11.479999999999999 
1303 435 1 -1.054 39.519999999999996 4.16 5.48 
1304 435 2 0.527 40.10588227661829 4.916950327263661 5.48 
1305 435 2 0.527 40.10588227661829 3.4030496727363384 5.48 
1306 436 1 -1.054 32.879999999999995 26.44 0.08 
1307 436 2 0.527 33.465882276618295 27.196950327263664 0.08 
1308 436 2 0.527 33.465882276618295 25.683049672736338 0.08 
1309 437 1 -1.054 30.84 25.240000000000002 16.8 
1310 437 2 0.527 31.425882276618296 25.99695032726366 16.8 
1311 437 2 0.527 31.425882276618296 24.48304967273634 16.8 
1312 438 1 -1.054 14.12 35.4 17.72 
1313 438 2 0.527 14.705882276618294 36.15695032726366 17.72 
1314 438 2 0.527 14.705882276618294 34.64304967273634 17.72 
1315 439 1 -1.054 9.84 22.12 0.76 
1316 439 2 0.527 10.425882276618294 22.876950327263664 0.76 
1317 439 2 0.527 10.425882276618294 21.36304967273634 0.76 
1318 440 1 -1.054 18.44 7.08 23.72 
1319 440 2 0.527 19.025882276618297 7.836950327263661 23.72 
1320 440 2 0.527 19.025882276618297 6.323049672736339 23.72 
1321 441 1 -1.054 3.2 1.12 32.64 
1322 441 2 0.527 3.785882276618295 1.8769503272636612 32.64 
1323 441 2 0.527 3.785882276618295 0.36304967273633887 32.64 
1324 442 1 -1.054 36.96 28.96 6.08 
1325 442 2 0.527 37.5458822766183 29.71695032726366 6.08 
1326 442 2 0.527 37.5458822766183 28.203049672736338 6.08 
1327 443 1 -1.054 17.56 9.76 29.16 
1328 443 2 0.527 18.145882276618295 10.516950327263661 29.16 
1329 443 2 0.527 18.145882276618295 9.003049672736338 29.16 
1330 444 1 -1.054 6.32 35.72 37.68 
1331 444 2 0.527 6.905882276618295 36.476950327263665 37.68 
1332 444 2 0.527 6.905882276618295 34.96304967273634 37.68 
1333 445 1 -1.054 13.48 5.84 0.8 
1334 445 2 0.527 14.065882276618296 6.596950327263661 0.8 
1335 445 2 0.527 14.065882276618296 5.083049672736339 0.8 
1336 446 1 -1.054 31.44 9.0 2.44 
1337 446 2 0.527 32.0258822766183 9.756950327263661 2.44 
1338 446 2 0.527 32.0258822766183 8.243049672736339 2.44 
1339 447 1 -1.054 15.120000000000001 2.68 30.72 
1340 447 2 0.527 15.705882276618295 3.4369503272636615 30.72 
1341 447 2 0.527 15.705882276618295 1.9230496727363389 30.72 
1342 448 1 -1.054 37.480000000000004 33.12 26.68 
1343 448 2 0.527 38.0658822766183 33.87695032726366 26.68 
1344 448 2 0.527 38.0658822766183 32.36304967273634 26.68 
1345 449 1 -1.054 3.08 8.76 18.32 
1346 449 2 0.527 3.665882276618295 9.516950327263661 18.32 
1347 449 2 0.527 3.665882276618295 8.003049672736338 18.32 
1348 450 1 -1.054 35.0 13.48 21.080000000000002 
1349 450 2 0.527 35.5858822766183 14.236950327263662 21.080000000000002 
1350 450 2 0.527 35.5858822766183 12.72304967273634 21.080000000000002 
1351 451 1 -1.054 20.0 35.68 34.32 
1352 451 2 0.527 20.585882276618296 36.43695032726366 34.32 
1353 451 2 0.527 20.585882276618296 34.92304967273634 34.32 
1354 452 1 -1.054 8.44 5.16 30.4 
1355 452 2 0.527 9.025882276618294 5.916950327263661 30.4 
1356 452 2 0.527 9.025882276618294 4.403049672736339 30.4 
1357 453 1 -1.054 26.520000000000003 1.0 6.760000000000001 
1358 453 2 0.527 27.1058822766183 1.756950327263661 6.760000000000001 
1359 453 2 0.527 27.1058822766183 0.2430496727363389 6.760000000000001 
1360 454 1 -1.054 36.24 19.92 39.88 
1361 454 2 0.527 36.8258822766183 20.67695032726366 39.88 
1362 454 2 0.527 36.8258822766183 19.16304967273634 39.88 
1363 455 1 -1.054 10.68 38.12 18.36 
1364 455 2 0.527 11.265882276618296 38.87695032726366 18.36 
1365 455 2 0.527 11.265882276618296 37.36304967273634 18.36 
1366 456 1 -1.054 2.64 27.919999999999998 16.84 
1367 456 2 0.527 3.225882276618295 28.67695032726366 16.84 
1368 456 2 0.527 3.225882276618295 27.163049672736335 16.84 
1369 457 1 -1.054 11.68 34.04 17.92 
1370 457 2 0.527 12.265882276618294 34.79695032726366 17.92 
1371 457 2 0.527 12.265882276618294 33.28304967273634 17.92 
1372 458 1 -1.054 22.0 28.08 35.24 
1373 458 2 0.527 22.5858822766183 28.836950327263658 35.24 
1374 458 2 0.527 22.5858822766183 27.32304967273634 35.24 
1375 459 1 -1.054 21.76 25.04 30.240000000000002 
1376 459 2 0.527 22.345882276618298 25.796950327263662 30.240000000000002 
1377 459 2 0.527 22.345882276618298 24.28304967273634 30.240000000000002 
1378 460 1 -1.054 33.44 27.88 33.839999999999996 
1379 460 2 0.527 34.0258822766183 28.63695032726366 33.839999999999996 
1380 460 2 0.527 34.0258822766183 27.123049672736336 33.839999999999996 
1381 461 1 -1.054 23.2 37.440000000000005 30.44 
1382 461 2 0.527 23.785882276618295 38.196950327263664 30.44 
1383 461 2 0.527 23.785882276618295 36.68304967273634 30.44 
1384 462 1 -1.054 15.36 32.36 39.04 
1385 462 2 0.527 15.945882276618295 33.116950327263666 39.04 
1386 462 2 0.527 15.945882276618295 31.60304967273634 39.04 
1387 463 1 -1.054 31.36 19.32 7.16 
1388 463 2 0.527 31.9458822766183 20.07695032726366 7.16 
1389 463 2 0.527 31.9458822766183 18.563049672736337 7.16 
1390 464 1 -1.054 5.12 16.0 32.839999999999996 
1391 464 2 0.527 5.705882276618295 16.756950327263663 32.839999999999996 
1392 464 2 0.527 5.705882276618295 15.24304967273634 32.839999999999996 
1393 465 1 -1.054 16.4 1.7999999999999998 6.840000000000001 
1394 465 2 0.527 16.985882276618295 2.556950327263661 6.840000000000001 
1395 465 2 0.527 16.985882276618295 1.0430496727363388 6.840000000000001 
1396 466 1 -1.054 25.0 37.04 34.28 
1397 466 2 0.527 25.585882276618296 37.796950327263666 34.28 
1398 466 2 0.527 25.585882276618296 36.28304967273634 34.28 
1399 467 1 -1.054 39.64 17.32 25.44 
1400 467 2 0.527 40.22588227661829 18.07695032726366 25.44 
1401 467 2 0.527 40.22588227661829 16.563049672736337 25.44 
1402 468 1 -1.054 38.44 12.32 33.879999999999995 
1403 468 2 0.527 39.0258822766183 13.076950327263662 33.879999999999995 
1404 468 2 0.527 39.0258822766183 11.563049672736339 33.879999999999995 
1405 469 1 -1.054 5.96 24.72 19.48 
1406 469 2 0.527 6.545882276618294 25.476950327263662 19.48 
1407 469 2 0.527 6.545882276618294 23.96304967273634 19.48 
1408 470 1 -1.054 25.0 13.16 28.599999999999998 
1409 470 2 0.527 25.585882276618296 13.916950327263661 28.599999999999998 
1410 470 2 0.527 25.585882276618296 12.403049672736339 28.599999999999998 
1411 471 1 -1.054 35.28 39.16 1.1600000000000001 
1412 471 2 0.527 35.865882276618294 39.91695032726366 1.1600000000000001 
1413 471 2 0.527 35.865882276618294 38.40304967273634 1.1600000000000001 
1414 472 1 -1.054 2.36 4.5200000000000005 19.96 
1415 472 2 0.527 2.9458822766182946 5.276950327263661 19.96 
1416 472 2 0.527 2.9458822766182946 3.7630496727363387 19.96 
1417 473 1 -1.054 22.240000000000002 17.24 23.4 
1418 473 2 0.527 22.825882276618298 17.99695032726366 23.4 
1419 473 2 0.527 22.825882276618298 16.48304967273634 23.4 
1420 474 1 -1.054 11.36 1.52 11.040000000000001 
1421 474 2 0.527 11.945882276618294 2.276950327263661 11.040000000000001 
1422 474 2 0.527 11.945882276618294 0.7630496727363388 11.040000000000001 
1423 475 1 -1.054 35.480000000000004 34.2 15.600000000000001 
1424 475 2 0.527 36.0658822766183 34.95695032726366 15.600000000000001 
1425 475 2 0.527 36.0658822766183 33.443049672736336 15.600000000000001 
1426 476 1 -1.054 16.04 13.24 7.24 
1427 476 2 0.527 16.625882276618295 13.996950327263662 7.24 
1428 476 2 0.527 16.625882276618295 12.483049672736339 7.24 
1429 477 1 -1.054 29.6 22.839999999999996 8.96 
1430 477 2 0.527 30.185882276618297 23.59695032726366 8.96 
1431 477 2 0.527 30.185882276618297 22.083049672736337 8.96 
1432 478 1 -1.054 38.839999999999996 2.52 37.559999999999995 
1433 478 2 0.527 39.425882276618296 3.2769503272636613 37.559999999999995 
1434 478 2 0.527 39.425882276618296 1.7630496727363387 37.559999999999995 
1435 479 1 -1.054 34.92 8.08 10.96 
1436 479 2 0.527 35.505882276618294 8.836950327263661 10.96 
1437 479 2 0.527 35.505882276618294 7.323049672736339 10.96 
1438 480 1 -1.054 5.44 33.56 7.5600000000000005 
1439 480 2 0.527 6.025882276618296 34.31695032726366 7.5600000000000005 
1440 480 2 0.527 6.025882276618296 32.803049672736336 7.5600000000000005 
1441 481 1 -1.054 38.4 3.4000000000000004 1.0 
1442 481 2 0.527 38.9858822766183 4.156950327263662 1.0 
1443 481 2 0.527 38.9858822766183 2.643049672736339 1.0 
1444 482 1 -1.054 23.24 5.04 31.28 
1445 482 2 0.527 23.825882276618294 5.796950327263661 31.28 
1446 482 2 0.527 23.825882276618294 4.283049672736339 31.28 
1447 483 1 -1.054 32.64 20.240000000000002 21.92 
1448 483 2 0.527 33.22588227661829 20.99695032726366 21.92 
1449 483 2 0.527 33.22588227661829 19.48304967273634 21.92 
1450 484 1 -1.054 13.64 1.24 16.68 
1451 484 2 0.527 14.225882276618297 1.9969503272636613 16.68 
1452 484 2 0.527 14.225882276618297 0.4830496727363388 16.68 
1453 485 1 -1.054 32.519999999999996 19.24 0.36 
1454 485 2 0.527 33.105882276618296 19.99695032726366 0.36 
1455 485 2 0.527 33.105882276618296 18.48304967273634 0.36 
1456 486 1 -1.054 14.44 37.519999999999996 6.36 
1457 486 2 0.527 15.025882276618294 38.27695032726366 6.36 
1458 486 2 0.527 15.025882276618294 36.76304967273634 6.36 
1459 487 1 -1.054 24.8 26.04 16.200000000000003 
1460 487 2 0.527 25.385882276618297 26.796950327263662 16.200000000000003 
1461 487 2 0.527 25.385882276618297 25.28304967273634 16.200000000000003 
1462 488 1 -1.054 17.44 33.48 24.92 
1463 488 2 0.527 18.025882276618294 34.236950327263656 24.92 
1464 488 2 0.527 18.025882276618294 32.72304967273634 24.92 
1465 489 1 -1.054 22.040000000000003 34.519999999999996 4.76 
1466 489 2 0.527 22.6258822766183 35.27695032726366 4.76 
1467 489 2 0.527 22.6258822766183 33.76304967273634 4.76 
1468 490 1 -1.054 22.360000000000003 18.720000000000002 31.28 
1469 490 2 0.527 22.9458822766183 19.476950327263662 31.28 
1470 490 2 0.527 22.9458822766183 17.96304967273634 31.28 
1471 491 1 -1.054 15.120000000000001 16.200000000000003 4.84 
1472 491 2 0.527 15.705882276618295 16.956950327263662 4.84 
1473 491 2 0.527 15.705882276618295 15.44304967273634 4.84 
1474 492 1 -1.054 24.56 1.36 18.68 
1475 492 2 0.527 25.145882276618295 2.1169503272636616 18.68 
1476 492 2 0.527 25.145882276618295 0.6030496727363389 18.68 
1477 493 1 -1.054 16.279999999999998 28.72 2.04 
1478 493 2 0.527 16.865882276618294 29.47695032726366 2.04 
1479 493 2 0.527 16.865882276618294 27.96304967273634 2.04 
1480 494 1 -1.054 35.92 24.119999999999997 15.52 
1481 494 2 0.527 36.505882276618294 24.87695032726366 15.52 
1482 494 2 0.527 36.505882276618294 23.363049672736338 15.52 
1483 495 1 -1.054 24.24 2.64 4.08 
1484 495 2 0.527 24.825882276618294 3.3969503272636614 4.08 
1485 495 2 0.527 24.825882276618294 1.8830496727363388 4.08 
1486 496 1 -1.054 34.12 1.36 19.439999999999998 
1487 496 2 0.527 34.7058822766183 2.1169503272636616 19.439999999999998 
1488 496 2 0.527 34.7058822766183 0.6030496727363389 19.439999999999998 
1489 497 1 -1.054 11.200000000000001 2.68 17.16 
1490 497 2 0.527 11.785882276618295 3.4369503272636615 17.16 
1491 497 2 0.527 11.785882276618295 1.9230496727363389 17.16 
1492 498 1 -1.054 36.0 17.4 2.0 
1493 498 2 0.527 36.5858822766183 18.15695032726366 2.0 
1494 498 2 0.527 36.5858822766183 16.64304967273634 2.0 
1495 499 1 -1.054 23.2 1.7999999999999998 6.800000000000001 
1496 499 2 0.527 23.785882276618295 2.556950327263661 6.800000000000001 
1497 499 2 0.527 23.785882276618295 1.0430496727363388 6.800000000000001 
1498 500 1 -1.054 31.12 17.04 34.64 
1499 500 2 0.527 31.705882276618297 17.796950327263662 34.64 
1500 500 2 0.527 31.705882276618297 16.28304967273634 34.64 
1501 501 1 -1.054 22.839999999999996 9.44 19.6 
1502 501 2 0.527 23.425882276618296 10.19695032726366 19.6 
1503 501 2 0.527 23.425882276618296 8.683049672736338 19.6 
1504 502 1 -1.054 9.96 38.76 14.52 
1505 502 2 0.527 10.545882276618295 39.51695032726366 14.52 
1506 502 2 0.527 10.545882276618295 38.00304967273634 14.52 
1507 503 1 -1.054 3.08 22.240000000000002 26.240000000000002 
1508 503 2 0.527 3.665882276618295 22.99695032726366 26.240000000000002 
1509 503 2 0.527 3.665882276618295 21.483049672736342 26.240000000000002 
1510 504 1 -1.054 3.4399999999999995 20.240000000000002 33.68 
1511 504 2 0.527 4.025882276618295 20.99695032726366 33.68 
1512 504 2 0.527 4.025882276618295 19.48304967273634 33.68 
1513 505 1 -1.054 3.84 34.6 12.24 
1514 505 2 0.527 4.425882276618295 35.35695032726366 12.24 
1515 505 2 0.527 4.425882276618295 33.84304967273634 12.24 
1516 506 1 -1.054 4.8 30.12 39.36 
1517 506 2 0.527 5.385882276618295 30.87695032726366 39.36 
1518 506 2 0.527 5.385882276618295 29.363049672736338 39.36 
1519 507 1 -1.054 7.880000000000001 0.48 21.8 
1520 507 2 0.527 8.465882276618295 1.2369503272636613 21.8 
1521 507 2 0.527 8.465882276618295 -0.27695032726366114 21.8 
1522 508 1 -1.054 25.0 10.32 0.9199999999999999 
1523 508 2 0.527 25.585882276618296 11.076950327263662 0.9199999999999999 
1524 508 2 0.527 25.585882276618296 9.563049672736339 0.9199999999999999 
1525 509 1 -1.054 5.44 18.04 27.28 
1526 509 2 0.527 6.025882276618296 18.796950327263662 27.28 
1527 509 2 0.527 6.025882276618296 17.28304967273634 27.28 
1528 510 1 -1.054 12.0 27.160000000000004 30.28 
1529 510 2 0.527 12.585882276618294 27.916950327263663 30.28 
1530 510 2 0.527 12.585882276618294 26.40304967273634 30.28 
1531 511 1 -1.054 8.48 39.96 34.96 
1532 511 2 0.527 9.065882276618295 40.71695032726366 34.96 
1533 511 2 0.527 9.065882276618295 39.20304967273634 34.96 
1534 512 1 -1.054 14.879999999999999 31.12 5.48 
1535 512 2 0.527 15.465882276618295 31.876950327263664 5.48 
1536 512 2 0.527 15.465882276618295 30.363049672736338 5.48 
1537 513 1 -1.054 34.76 26.04 29.6 
1538 513 2 0.527 35.3458822766183 26.796950327263662 29.6 
1539 513 2 0.527 35.3458822766183 25.28304967273634 29.6 
1540 514 1 -1.054 12.2 29.439999999999998 19.16 
1541 514 2 0.527 12.785882276618295 30.19695032726366 19.16 
1542 514 2 0.527 12.785882276618295 28.683049672736338 19.16 
1543 515 1 -1.054 34.0 8.92 32.480000000000004 
1544 515 2 0.527 34.58588227661829 9.676950327263661 32.480000000000004 
1545 515 2 0.527 34.58588227661829 8.163049672736339 32.480000000000004 
1546 516 1 -1.054 32.68 26.200000000000003 24.88 
1547 516 2 0.527 33.26588227661829 26.956950327263662 24.88 
1548 516 2 0.527 33.26588227661829 25.44304967273634 24.88 
1549 517 1 -1.054 4.88 3.2800000000000002 12.92 
1550 517 2 0.527 5.465882276618295 4.0369503272636615 12.92 
1551 517 2 0.527 5.465882276618295 2.523049672736339 12.92 
1552 518 1 -1.054 35.32 1.24 14.12 
1553 518 2 0.527 35.9058822766183 1.9969503272636613 14.12 
1554 518 2 0.527 35.9058822766183 0.4830496727363388 14.12 
1555 519 1 -1.054 27.080000000000002 31.560000000000002 17.28 
1556 519 2 0.527 27.665882276618298 32.31695032726366 17.28 
1557 519 2 0.527 27.665882276618298 30.80304967273634 17.28 
1558 520 1 -1.054 5.84 36.52 29.92 
1559 520 2 0.527 6.425882276618294 37.27695032726366 29.92 
1560 520 2 0.527 6.425882276618294 35.763049672736344 29.92 
1561 521 1 -1.054 0.2 14.32 27.599999999999998 
1562 521 2 0.527 0.7858822766182949 15.07695032726366 27.599999999999998 
1563 521 2 0.527 0.7858822766182949 13.563049672736337 27.599999999999998 
1564 522 1 -1.054 5.24 34.24 4.36 
1565 522 2 0.527 5.8258822766182945 34.99695032726366 4.36 
1566 522 2 0.527 5.8258822766182945 33.483049672736335 4.36 
1567 523 1 -1.054 10.920000000000002 33.879999999999995 15.4 
1568 523 2 0.527 11.505882276618296 34.63695032726366 15.4 
1569 523 2 0.527 11.505882276618296 33.123049672736336 15.4 
1570 524 1 -1.054 9.040000000000001 9.68 21.0 
1571 524 2 0.527 9.625882276618295 10.436950327263661 21.0 
1572 524 2 0.527 9.625882276618295 8.923049672736338 21.0 
1573 525 1 -1.054 2.2800000000000002 31.080000000000002 17.96 
1574 525 2 0.527 2.865882276618295 31.83695032726366 17.96 
1575 525 2 0.527 2.865882276618295 30.32304967273634 17.96 
1576 526 1 -1.054 39.8 30.84 33.28 
1577 526 2 0.527 40.3858822766183 31.596950327263663 33.28 
1578 526 2 0.527 40.3858822766183 30.08304967273634 33.28 
1579 527 1 -1.054 13.360000000000001 6.0 5.28 
1580 527 2 0.527 13.945882276618295 6.756950327263661 5.28 
1581 527 2 0.527 13.945882276618295 5.243049672736339 5.28 
1582 528 1 -1.054 31.44 32.559999999999995 1.7999999999999998 
1583 528 2 0.527 32.0258822766183 33.31695032726366 1.7999999999999998 
1584 528 2 0.527 32.0258822766183 31.803049672736336 1.7999999999999998 
1585 529 1 -1.054 12.84 14.48 14.96 
1586 529 2 0.527 13.425882276618296 15.23695032726366 14.96 
1587 529 2 0.527 13.425882276618296 13.723049672736337 14.96 
1588 530 1 -1.054 39.12 23.119999999999997 26.0 
1589 530 2 0.527 39.7058822766183 23.87695032726366 26.0 
1590 530 2 0.527 39.7058822766183 22.363049672736338 26.0 
1591 531 1 -1.054 2.48 28.119999999999997 2.64 
1592 531 2 0.527 3.0658822766182947 28.87695032726366 2.64 
1593 531 2 0.527 3.0658822766182947 27.363049672736338 2.64 
1594 532 1 -1.054 14.719999999999999 29.28 9.68 
1595 532 2 0.527 15.305882276618295 30.03695032726366 9.68 
1596 532 2 0.527 15.305882276618295 28.523049672736338 9.68 
1597 533 1 -1.054 17.56 22.240000000000002 38.12 
1598 533 2 0.527 18.145882276618295 22.99695032726366 38.12 
1599 533 2 0.527 18.145882276618295 21.483049672736342 38.12 
1600 534 1 -1.054 31.840000000000003 22.200000000000003 17.96 
1601 534 2 0.527 32.425882276618296 22.956950327263662 17.96 
1602 534 2 0.527 32.425882276618296 21.44304967273634 17.96 
1603 535 1 -1.054 4.84 21.04 16.72 
1604 535 2 0.527 5.425882276618294 21.796950327263662 16.72 
1605 535 2 0.527 5.425882276618294 20.28304967273634 16.72 
1606 536 1 -1.054 23.68 24.759999999999998 24.6 
1607 536 2 0.527 24.265882276618296 25.51695032726366 24.6 
1608 536 2 0.527 24.265882276618296 24.00304967273634 24.6 
1609 537 1 -1.054 37.96 19.52 26.880000000000003 
1610 537 2 0.527 38.54588227661829 20.276950327263663 26.880000000000003 
1611 537 2 0.527 38.54588227661829 18.763049672736337 26.880000000000003 
1612 538 1 -1.054 29.4 32.879999999999995 3.5199999999999996 
1613 538 2 0.527 29.985882276618298 33.63695032726366 3.5199999999999996 
1614 538 2 0.527 29.985882276618298 32.123049672736336 3.5199999999999996 
1615 539 1 -1.054 19.72 23.0 31.400000000000002 
1616 539 2 0.527 20.3058822766183 23.75695032726366 31.400000000000002 
1617 539 2 0.527 20.3058822766183 22.243049672736337 31.400000000000002 
1618 540 1 -1.054 36.72 27.839999999999996 37.519999999999996 
1619 540 2 0.527 37.3058822766183 28.59695032726366 37.519999999999996 
1620 540 2 0.527 37.3058822766183 27.083049672736337 37.519999999999996 
1621 541 1 -1.054 27.160000000000004 19.759999999999998 18.0 
1622 541 2 0.527 27.7458822766183 20.51695032726366 18.0 
1623 541 2 0.527 27.7458822766183 19.00304967273634 18.0 
1624 542 1 -1.054 8.36 31.840000000000003 27.88 
1625 542 2 0.527 8.945882276618294 32.59695032726366 27.88 
1626 542 2 0.527 8.945882276618294 31.08304967273634 27.88 
1627 543 1 -1.054 11.879999999999999 1.56 7.52 
1628 543 2 0.527 12.465882276618295 2.316950327263661 7.52 
1629 543 2 0.527 12.465882276618295 0.8030496727363389 7.52 
1630 544 1 -1.054 24.759999999999998 9.48 30.04 
1631 544 2 0.527 25.345882276618298 10.23695032726366 30.04 
1632 544 2 0.527 25.345882276618298 8.723049672736337 30.04 
1633 545 1 -1.054 14.879999999999999 8.08 20.48 
1634 545 2 0.527 15.465882276618295 8.836950327263661 20.48 
1635 545 2 0.527 15.465882276618295 7.323049672736339 20.48 
1636 546 1 -1.054 6.48 7.48 28.919999999999998 
1637 546 2 0.527 7.065882276618295 8.236950327263662 28.919999999999998 
1638 546 2 0.527 7.065882276618295 6.723049672736339 28.919999999999998 
1639 547 1 -1.054 19.4 36.04 28.279999999999998 
1640 547 2 0.527 19.985882276618295 36.79695032726366 28.279999999999998 
1641 547 2 0.527 19.985882276618295 35.28304967273634 28.279999999999998 
1642 548 1 -1.054 28.84 14.559999999999999 20.44 
1643 548 2 0.527 29.425882276618296 15.316950327263662 20.44 
1644 548 2 0.527 29.425882276618296 13.80304967273634 20.44 
1645 549 1 -1.054 17.32 2.2 21.240000000000002 
1646 549 2 0.527 17.905882276618293 2.956950327263661 21.240000000000002 
1647 549 2 0.527 17.905882276618293 1.4430496727363389 21.240000000000002 
1648 550 1 -1.054 10.04 39.64 7.24 
1649 550 2 0.527 10.625882276618295 40.39695032726365 7.24 
1650 550 2 0.527 10.625882276618295 38.88304967273634 7.24 
1651 551 1 -1.054 32.08 12.2 22.72 
1652 551 2 0.527 32.6658822766183 12.95695032726366 22.72 
1653 551 2 0.527 32.6658822766183 11.443049672736338 22.72 
1654 552 1 -1.054 12.92 34.04 32.96 
1655 552 2 0.527 13.505882276618294 34.79695032726366 32.96 
1656 552 2 0.527 13.505882276618294 33.28304967273634 32.96 
1657 553 1 -1.054 24.56 10.08 13.08 
1658 553 2 0.527 25.145882276618295 10.836950327263661 13.08 
1659 553 2 0.527 25.145882276618295 9.323049672736339 13.08 
1660 554 1 -1.054 12.76 18.12 2.04 
1661 554 2 0.527 13.345882276618294 18.87695032726366 2.04 
1662 554 2 0.527 13.345882276618294 17.363049672736338 2.04 
1663 555 1 -1.054 17.56 39.2 8.32 
1664 555 2 0.527 18.145882276618295 39.95695032726366 8.32 
1665 555 2 0.527 18.145882276618295 38.443049672736336 8.32 
1666 556 1 -1.054 20.08 26.0 27.400000000000002 
1667 556 2 0.527 20.665882276618298 26.756950327263663 27.400000000000002 
1668 556 2 0.527 20.665882276618298 25.24304967273634 27.400000000000002 
1669 557 1 -1.054 5.76 16.4 4.12 
1670 557 2 0.527 6.345882276618294 17.15695032726366 4.12 
1671 557 2 0.527 6.345882276618294 15.643049672736337 4.12 
1672 558 1 -1.054 18.0 36.480000000000004 0.72 
1673 558 2 0.527 18.585882276618296 37.23695032726366 0.72 
1674 558 2 0.527 18.585882276618296 35.72304967273634 0.72 
1675 559 1 -1.054 36.88 19.8 8.44 
1676 559 2 0.527 37.4658822766183 20.55695032726366 8.44 
1677 559 2 0.527 37.4658822766183 19.043049672736338 8.44 
1678 560 1 -1.054 30.16 12.6 25.12 
1679 560 2 0.527 30.745882276618296 13.356950327263661 25.12 
1680 560 2 0.527 30.745882276618296 11.843049672736338 25.12 
1681 561 1 -1.054 39.32 33.239999999999995 22.599999999999998 
1682 561 2 0.527 39.9058822766183 33.99695032726366 22.599999999999998 
1683 561 2 0.527 39.9058822766183 32.483049672736335 22.599999999999998 
1684 562 1 -1.054 37.32 22.959999999999997 38.239999999999995 
1685 562 2 0.527 37.9058822766183 23.71695032726366 38.239999999999995 
1686 562 2 0.527 37.9058822766183 22.203049672736338 38.239999999999995 
1687 563 1 -1.054 38.6 39.92 33.96 
1688 563 2 0.527 39.185882276618294 40.67695032726366 33.96 
1689 563 2 0.527 39.185882276618294 39.163049672736335 33.96 
1690 564 1 -1.054 11.68 7.359999999999999 37.0 
1691 564 2 0.527 12.265882276618294 8.11695032726366 37.0 
1692 564 2 0.527 12.265882276618294 6.603049672736338 37.0 
1693 565 1 -1.054 15.08 13.520000000000001 32.0 
1694 565 2 0.527 15.665882276618294 14.276950327263663 32.0 
1695 565 2 0.527 15.665882276618294 12.76304967273634 32.0 
1696 566 1 -1.054 34.12 4.08 21.720000000000002 
1697 566 2 0.527 34.7058822766183 4.836950327263661 21.720000000000002 
1698 566 2 0.527 34.7058822766183 3.3230496727363383 21.720000000000002 
1699 567 1 -1.054 1.28 6.12 7.880000000000001 
1700 567 2 0.527 1.865882276618295 6.876950327263661 7.880000000000001 
1701 567 2 0.527 1.865882276618295 5.363049672736339 7.880000000000001 
1702 568 1 -1.054 7.800000000000001 32.519999999999996 9.32 
1703 568 2 0.527 8.385882276618295 33.27695032726366 9.32 
1704 568 2 0.527 8.385882276618295 31.763049672736337 9.32 
1705 569 1 -1.054 28.4 27.599999999999998 12.56 
1706 569 2 0.527 28.985882276618295 28.35695032726366 12.56 
1707 569 2 0.527 28.985882276618295 26.843049672736335 12.56 
1708 570 1 -1.054 20.64 11.639999999999999 19.04 
1709 570 2 0.527 21.225882276618297 12.39695032726366 19.04 
1710 570 2 0.527 21.225882276618297 10.883049672736337 19.04 
1711 571 1 -1.054 7.359999999999999 23.36 2.48 
1712 571 2 0.527 7.945882276618295 24.11695032726366 2.48 
1713 571 2 0.527 7.945882276618295 22.603049672736336 2.48 
1714 572 1 -1.054 34.24 36.480000000000004 27.360000000000003 
1715 572 2 0.527 34.825882276618294 37.23695032726366 27.360000000000003 
1716 572 2 0.527 34.825882276618294 35.72304967273634 27.360000000000003 
1717 573 1 -1.054 10.96 15.08 37.519999999999996 
1718 573 2 0.527 11.545882276618295 15.836950327263661 37.519999999999996 
1719 573 2 0.527 11.545882276618295 14.323049672736339 37.519999999999996 
1720 574 1 -1.054 2.68 17.68 20.52 
1721 574 2 0.527 3.265882276618295 18.436950327263663 20.52 
1722 574 2 0.527 3.265882276618295 16.92304967273634 20.52 
1723 575 1 -1.054 4.24 1.24 4.76 
1724 575 2 0.527 4.8258822766182945 1.9969503272636613 4.76 
1725 575 2 0.527 4.8258822766182945 0.4830496727363388 4.76 
1726 576 1 -1.054 16.52 17.24 37.92 
1727 576 2 0.527 17.105882276618296 17.99695032726366 37.92 
1728 576 2 0.527 17.105882276618296 16.48304967273634 37.92 
1729 577 1 -1.054 4.76 1.8399999999999999 23.479999999999997 
1730 577 2 0.527 5.345882276618294 2.596950327263661 23.479999999999997 
1731 577 2 0.527 5.345882276618294 1.0830496727363388 23.479999999999997 
1732 578 1 -1.054 30.12 6.92 4.6000000000000005 
1733 578 2 0.527 30.705882276618297 7.676950327263661 4.6000000000000005 
1734 578 2 0.527 30.705882276618297 6.163049672736339 4.6000000000000005 
1735 579 1 -1.054 15.64 18.32 18.6 
1736 579 2 0.527 16.225882276618297 19.076950327263663 18.6 
1737 579 2 0.527 16.225882276618297 17.56304967273634 18.6 
1738 580 1 -1.054 29.88 3.5999999999999996 16.16 
1739 580 2 0.527 30.465882276618295 4.356950327263661 16.16 
1740 580 2 0.527 30.465882276618295 2.8430496727363384 16.16 
1741 581 1 -1.054 0.12 12.16 38.04 
1742 581 2 0.527 0.705882276618295 12.916950327263661 38.04 
1743 581 2 0.527 0.705882276618295 11.403049672736339 38.04 
1744 582 1 -1.054 32.120000000000005 15.72 21.16 
1745 582 2 0.527 32.7058822766183 16.476950327263662 21.16 
1746 582 2 0.527 32.7058822766183 14.96304967273634 21.16 
1747 583 1 -1.054 33.239999999999995 12.44 17.64 
1748 583 2 0.527 33.825882276618294 13.19695032726366 17.64 
1749 583 2 0.527 33.825882276618294 11.683049672736338 17.64 
1750 584 1 -1.054 18.52 15.760000000000002 11.399999999999999 
1751 584 2 0.527 19.105882276618296 16.51695032726366 11.399999999999999 
1752 584 2 0.527 19.105882276618296 15.003049672736338 11.399999999999999 
1753 585 1 -1.054 23.4 19.36 25.84 
1754 585 2 0.527 23.985882276618295 20.11695032726366 25.84 
1755 585 2 0.527 23.985882276618295 18.60304967273634 25.84 
1756 586 1 -1.054 33.44 16.16 38.96 
1757 586 2 0.527 34.0258822766183 16.916950327263663 38.96 
1758 586 2 0.527 34.0258822766183 15.40304967273634 38.96 
1759 587 1 -1.054 11.92 27.959999999999997 15.08 
1760 587 2 0.527 12.505882276618294 28.71695032726366 15.08 
1761 587 2 0.527 12.505882276618294 27.203049672736338 15.08 
1762 588 1 -1.054 33.8 12.68 4.5200000000000005 
1763 588 2 0.527 34.3858822766183 13.436950327263661 4.5200000000000005 
1764 588 2 0.527 34.3858822766183 11.923049672736338 4.5200000000000005 
1765 589 1 -1.054 15.52 22.0 1.92 
1766 589 2 0.527 16.105882276618296 22.756950327263663 1.92 
1767 589 2 0.527 16.105882276618296 21.24304967273634 1.92 
1768 590 1 -1.054 2.92 28.72 34.84 
1769 590 2 0.527 3.5058822766182947 29.47695032726366 34.84 
1770 590 2 0.527 3.5058822766182947 27.96304967273634 34.84 
1771 591 1 -1.054 39.8 12.08 2.44 
1772 591 2 0.527 40.3858822766183 12.836950327263661 2.44 
1773 591 2 0.527 40.3858822766183 11.323049672736339 2.44 
1774 592 1 -1.054 35.36 3.5199999999999996 1.56 
1775 592 2 0.527 35.9458822766183 4.276950327263661 1.56 
1776 592 2 0.527 35.9458822766183 2.7630496727363383 1.56 
1777 593 1 -1.054 6.36 31.8 37.36 
1778 593 2 0.527 6.945882276618295 32.556950327263664 37.36 
1779 593 2 0.527 6.945882276618295 31.04304967273634 37.36 
1780 594 1 -1.054 15.120000000000001 26.0 18.28 
1781 594 2 0.527 15.705882276618295 26.756950327263663 18.28 
1782 594 2 0.527 15.705882276618295 25.24304967273634 18.28 
1783 595 1 -1.054 16.919999999999998 2.12 13.72 
1784 595 2 0.527 17.505882276618294 2.876950327263661 13.72 
1785 595 2 0.527 17.505882276618294 1.3630496727363388 13.72 
1786 596 1 -1.054 2.72 35.64 4.88 
1787 596 2 0.527 3.305882276618295 36.39695032726366 4.88 
1788 596 2 0.527 3.305882276618295 34.88304967273634 4.88 
1789 597 1 -1.054 39.68 34.88 12.08 
1790 597 2 0.527 40.26588227661829 35.63695032726366 12.08 
1791 597 2 0.527 40.26588227661829 34.123049672736336 12.08 
1792 598 1 -1.054 23.88 23.72 17.24 
1793 598 2 0.527 24.465882276618295 24.47695032726366 17.24 
1794 598 2 0.527 24.465882276618295 22.96304967273634 17.24 
1795 599 1 -1.054 4.48 10.04 39.519999999999996 
1796 599 2 0.527 5.065882276618296 10.796950327263662 39.519999999999996 
1797 599 2 0.527 5.065882276618296 9.28304967273634 39.519999999999996 
1798 600 1 -1.054 25.4 22.519999999999996 29.4 
1799 600 2 0.527 25.985882276618298 23.27695032726366 29.4 
1800 600 2 0.527 25.985882276618298 21.763049672736337 29.4 
1801 601 1 -1.054 30.6 1.7199999999999998 1.8399999999999999 
1802 601 2 0.527 31.185882276618297 2.476950327263661 1.8399999999999999 
1803 601 2 0.527 31.185882276618297 0.9630496727363387 1.8399999999999999 
1804 602 1 -1.054 1.44 23.56 7.32 
1805 602 2 0.527 2.0258822766182947 24.316950327263662 7.32 
1806 602 2 0.527 2.0258822766182947 22.803049672736336 7.32 
1807 603 1 -1.054 27.0 16.68 6.36 
1808 603 2 0.527 27.5858822766183 17.43695032726366 6.36 
1809 603 2 0.527 27.5858822766183 15.923049672736338 6.36 
1810 604 1 -1.054 3.2800000000000002 25.240000000000002 0.16 
1811 604 2 0.527 3.865882276618295 25.99695032726366 0.16 
1812 604 2 0.527 3.865882276618295 24.48304967273634 0.16 
1813 605 1 -1.054 30.8 23.72 24.92 
1814 605 2 0.527 31.385882276618297 24.47695032726366 24.92 
1815 605 2 0.527 31.385882276618297 22.96304967273634 24.92 
1816 606 1 -1.054 24.68 6.08 11.319999999999999 
1817 606 2 0.527 25.265882276618296 6.836950327263661 11.319999999999999 
1818 606 2 0.527 25.265882276618296 5.323049672736339 11.319999999999999 
1819 607 1 -1.054 30.0 35.56 39.2 
1820 607 2 0.527 30.585882276618296 36.31695032726366 39.2 
1821 607 2 0.527 30.585882276618296 34.803049672736336 39.2 
1822 608 1 -1.054 16.96 18.799999999999997 33.56 
1823 608 2 0.527 17.545882276618293 19.55695032726366 33.56 
1824 608 2 0.527 17.545882276618293 18.043049672736338 33.56 
1825 609 1 -1.054 10.88 7.5600000000000005 14.0 
1826 609 2 0.527 11.465882276618295 8.316950327263662 14.0 
1827 609 2 0.527 11.465882276618295 6.803049672736339 14.0 
1828 610 1 -1.054 13.84 32.72 20.16 
1829 610 2 0.527 14.425882276618294 33.47695032726366 20.16 
1830 610 2 0.527 14.425882276618294 31.963049672736336 20.16 
1831 611 1 -1.054 16.52 7.52 33.12 
1832 611 2 0.527 17.105882276618296 8.27695032726366 33.12 
1833 611 2 0.527 17.105882276618296 6.763049672736338 33.12 
1834 612 1 -1.054 29.36 18.44 31.0 
1835 612 2 0.527 29.945882276618295 19.19695032726366 31.0 
1836 612 2 0.527 29.945882276618295 17.683049672736338 31.0 
1837 613 1 -1.054 21.12 1.36 12.52 
1838 613 2 0.527 21.705882276618297 2.1169503272636616 12.52 
1839 613 2 0.527 21.705882276618297 0.6030496727363389 12.52 
1840 614 1 -1.054 6.4 19.72 38.839999999999996 
1841 614 2 0.527 6.985882276618295 20.476950327263662 38.839999999999996 
1842 614 2 0.527 6.985882276618295 18.96304967273634 38.839999999999996 
1843 615 1 -1.054 20.16 0.8799999999999999 16.72 
1844 615 2 0.527 20.745882276618296 1.636950327263661 16.72 
1845 615 2 0.527 20.745882276618296 0.1230496727363388 16.72 
1846 616 1 -1.054 3.2 13.680000000000001 19.08 
1847 616 2 0.527 3.785882276618295 14.436950327263663 19.08 
1848 616 2 0.527 3.785882276618295 12.92304967273634 19.08 
1849 617 1 -1.054 25.48 33.36 10.24 
1850 617 2 0.527 26.065882276618296 34.11695032726366 10.24 
1851 617 2 0.527 26.065882276618296 32.60304967273634 10.24 
1852 618 1 -1.054 10.84 12.88 8.36 
1853 618 2 0.527 11.425882276618296 13.636950327263662 8.36 
1854 618 2 0.527 11.425882276618296 12.12304967273634 8.36 
1855 619 1 -1.054 1.7199999999999998 9.120000000000001 31.04 
1856 619 2 0.527 2.305882276618295 9.876950327263662 31.04 
1857 619 2 0.527 2.305882276618295 8.36304967273634 31.04 
1858 620 1 -1.054 36.04 18.0 28.159999999999997 
1859 620 2 0.527 36.6258822766183 18.756950327263663 28.159999999999997 
1860 620 2 0.527 36.6258822766183 17.24304967273634 28.159999999999997 
1861 621 1 -1.054 10.280000000000001 29.96 36.72 
1862 621 2 0.527 10.865882276618295 30.71695032726366 36.72 
1863 621 2 0.527 10.865882276618295 29.203049672736338 36.72 
1864 622 1 -1.054 33.239999999999995 2.84 7.5600000000000005 
1865 622 2 0.527 33.825882276618294 3.596950327263661 7.5600000000000005 
1866 622 2 0.527 33.825882276618294 2.0830496727363386 7.5600000000000005 
1867 623 1 -1.054 8.44 4.84 4.48 
1868 623 2 0.527 9.025882276618294 5.596950327263661 4.48 
1869 623 2 0.527 9.025882276618294 4.083049672736339 4.48 
1870 624 1 -1.054 36.32 7.279999999999999 3.12 
1871 624 2 0.527 36.9058822766183 8.03695032726366 3.12 
1872 624 2 0.527 36.9058822766183 6.523049672736338 3.12 
1873 625 1 -1.054 35.44 21.0 1.88 
1874 625 2 0.527 36.0258822766183 21.756950327263663 1.88 
1875 625 2 0.527 36.0258822766183 20.24304967273634 1.88 
1876 626 1 -1.054 35.28 8.68 39.48 
1877 626 2 0.527 35.865882276618294 9.436950327263661 39.48 
1878 626 2 0.527 35.865882276618294 7.923049672736338 39.48 
1879 627 1 -1.054 7.0 11.040000000000001 18.88 
1880 627 2 0.527 7.585882276618294 11.796950327263662 18.88 
1881 627 2 0.527 7.585882276618294 10.28304967273634 18.88 
1882 628 1 -1.054 1.7199999999999998 22.360000000000003 16.4 
1883 628 2 0.527 2.305882276618295 23.116950327263663 16.4 
1884 628 2 0.527 2.305882276618295 21.60304967273634 16.4 
1885 629 1 -1.054 18.400000000000002 11.719999999999999 15.88 
1886 629 2 0.527 18.985882276618295 12.47695032726366 15.88 
1887 629 2 0.527 18.985882276618295 10.963049672736338 15.88 
1888 630 1 -1.054 21.48 3.2 39.44 
1889 630 2 0.527 22.065882276618296 3.9569503272636615 39.44 
1890 630 2 0.527 22.065882276618296 2.443049672736339 39.44 
1891 631 1 -1.054 26.12 28.279999999999998 4.5600000000000005 
1892 631 2 0.527 26.705882276618297 29.03695032726366 4.5600000000000005 
1893 631 2 0.527 26.705882276618297 27.523049672736338 4.5600000000000005 
1894 632 1 -1.054 12.76 18.64 5.76 
1895 632 2 0.527 13.345882276618294 19.396950327263664 5.76 
1896 632 2 0.527 13.345882276618294 17.88304967273634 5.76 
1897 633 1 -1.054 21.080000000000002 27.839999999999996 32.839999999999996 
1898 633 2 0.527 21.665882276618298 28.59695032726366 32.839999999999996 
1899 633 2 0.527 21.665882276618298 27.083049672736337 32.839999999999996 
1900 634 1 -1.054 10.08 0.8799999999999999 30.96 
1901 634 2 0.527 10.665882276618294 1.636950327263661 30.96 
1902 634 2 0.527 10.665882276618294 0.1230496727363388 30.96 
1903 635 1 -1.054 36.08 30.52 19.04 
1904 635 2 0.527 36.6658822766183 31.276950327263663 19.04 
1905 635 2 0.527 36.6658822766183 29.76304967273634 19.04 
1906 636 1 -1.054 4.4 12.4 13.200000000000001 
1907 636 2 0.527 4.985882276618295 13.156950327263662 13.200000000000001 
1908 636 2 0.527 4.985882276618295 11.643049672736339 13.200000000000001 
1909 637 1 -1.054 8.08 16.36 8.16 
1910 637 2 0.527 8.665882276618294 17.11695032726366 8.16 
1911 637 2 0.527 8.665882276618294 15.603049672736338 8.16 
1912 638 1 -1.054 27.480000000000004 31.96 32.160000000000004 
1913 638 2 0.527 28.0658822766183 32.71695032726366 32.160000000000004 
1914 638 2 0.527 28.0658822766183 31.20304967273634 32.160000000000004 
1915 639 1 -1.054 8.64 40.0 38.8 
1916 639 2 0.527 9.225882276618295 40.75695032726366 38.8 
1917 639 2 0.527 9.225882276618295 39.24304967273634 38.8 
1918 640 1 -1.054 25.2 19.68 39.64 
1919 640 2 0.527 25.785882276618295 20.43695032726366 39.64 
1920 640 2 0.527 25.785882276618295 18.92304967273634 39.64 
1921 641 1 -1.054 16.12 5.08 38.04 
1922 641 2 0.527 16.705882276618297 5.836950327263661 38.04 
1923 641 2 0.527 16.705882276618297 4.323049672736339 38.04 
1924 642 1 -1.054 39.12 14.2 15.72 
1925 642 2 0.527 39.7058822766183 14.95695032726366 15.72 
1926 642 2 0.527 39.7058822766183 13.443049672736338 15.72 
1927 643 1 -1.054 7.640000000000001 25.28 4.6000000000000005 
1928 643 2 0.527 8.225882276618295 26.03695032726366 4.6000000000000005 
1929 643 2 0.527 8.225882276618295 24.523049672736338 4.6000000000000005 
1930 644 1 -1.054 22.839999999999996 18.36 10.280000000000001 
1931 644 2 0.527 23.425882276618296 19.116950327263663 10.280000000000001 
1932 644 2 0.527 23.425882276618296 17.60304967273634 10.280000000000001 
1933 645 1 -1.054 26.520000000000003 38.519999999999996 18.400000000000002 
1934 645 2 0.527 27.1058822766183 39.27695032726366 18.400000000000002 
1935 645 2 0.527 27.1058822766183 37.76304967273634 18.400000000000002 
1936 646 1 -1.054 31.96 9.040000000000001 22.040000000000003 
1937 646 2 0.527 32.5458822766183 9.796950327263662 22.040000000000003 
1938 646 2 0.527 32.5458822766183 8.28304967273634 22.040000000000003 
1939 647 1 -1.054 7.32 33.28 23.56 
1940 647 2 0.527 7.905882276618295 34.03695032726366 23.56 
1941 647 2 0.527 7.905882276618295 32.523049672736335 23.56 
1942 648 1 -1.054 35.480000000000004 21.12 26.080000000000002 
1943 648 2 0.527 36.0658822766183 21.876950327263664 26.080000000000002 
1944 648 2 0.527 36.0658822766183 20.363049672736338 26.080000000000002 
1945 649 1 -1.054 27.28 1.8399999999999999 26.0 
1946 649 2 0.527 27.8658822766183 2.596950327263661 26.0 
1947 649 2 0.527 27.8658822766183 1.0830496727363388 26.0 
1948 650 1 -1.054 31.720000000000002 37.72 22.400000000000002 
1949 650 2 0.527 32.3058822766183 38.47695032726366 22.400000000000002 
1950 650 2 0.527 32.3058822766183 36.96304967273634 22.400000000000002 
1951 651 1 -1.054 5.5600000000000005 25.72 7.359999999999999 
1952 651 2 0.527 6.145882276618295 26.476950327263662 7.359999999999999 
1953 651 2 0.527 6.145882276618295 24.96304967273634 7.359999999999999 
1954 652 1 -1.054 14.2 33.8 22.799999999999997 
1955 652 2 0.527 14.785882276618294 34.556950327263664 22.799999999999997 
1956 652 2 0.527 14.785882276618294 33.04304967273634 22.799999999999997 
1957 653 1 -1.054 23.599999999999998 7.279999999999999 22.240000000000002 
1958 653 2 0.527 24.185882276618294 8.03695032726366 22.240000000000002 
1959 653 2 0.527 24.185882276618294 6.523049672736338 22.240000000000002 
1960 654 1 -1.054 15.48 10.120000000000001 2.12 
1961 654 2 0.527 16.065882276618296 10.87695032726366 2.12 
1962 654 2 0.527 16.065882276618296 9.363049672736338 2.12 
1963 655 1 -1.054 10.2 20.76 18.080000000000002 
1964 655 2 0.527 10.785882276618295 21.51695032726366 18.080000000000002 
1965 655 2 0.527 10.785882276618295 20.00304967273634 18.080000000000002 
1966 656 1 -1.054 2.92 20.2 4.640000000000001 
1967 656 2 0.527 3.5058822766182947 20.956950327263662 4.640000000000001 
1968 656 2 0.527 3.5058822766182947 19.44304967273634 4.640000000000001 
1969 657 1 -1.054 36.04 38.32 7.32 
1970 657 2 0.527 36.6258822766183 39.07695032726366 7.32 
1971 657 2 0.527 36.6258822766183 37.56304967273634 7.32 
1972 658 1 -1.054 32.599999999999994 25.8 8.28 
1973 658 2 0.527 33.185882276618294 26.556950327263664 8.28 
1974 658 2 0.527 33.185882276618294 25.043049672736338 8.28 
1975 659 1 -1.054 7.960000000000001 16.8 17.44 
1976 659 2 0.527 8.545882276618295 17.55695032726366 17.44 
1977 659 2 0.527 8.545882276618295 16.043049672736338 17.44 
1978 660 1 -1.054 5.28 17.2 35.16 
1979 660 2 0.527 5.865882276618295 17.956950327263662 35.16 
1980 660 2 0.527 5.865882276618295 16.44304967273634 35.16 
1981 661 1 -1.054 14.239999999999998 4.92 18.52 
1982 661 2 0.527 14.825882276618294 5.676950327263661 18.52 
1983 661 2 0.527 14.825882276618294 4.163049672736339 18.52 
1984 662 1 -1.054 9.48 29.0 22.080000000000002 
1985 662 2 0.527 10.065882276618295 29.75695032726366 22.080000000000002 
1986 662 2 0.527 10.065882276618295 28.243049672736337 22.080000000000002 
1987 663 1 -1.054 29.16 20.560000000000002 7.279999999999999 
1988 663 2 0.527 29.745882276618296 21.316950327263662 7.279999999999999 
1989 663 2 0.527 29.745882276618296 19.80304967273634 7.279999999999999 
1990 664 1 -1.054 39.72 36.160000000000004 32.72 
1991 664 2 0.527 40.3058822766183 36.91695032726366 32.72 
1992 664 2 0.527 40.3058822766183 35.40304967273634 32.72 
1993 665 1 -1.054 10.56 8.56 34.12 
1994 665 2 0.527 11.145882276618295 9.316950327263662 34.12 
1995 665 2 0.527 11.145882276618295 7.803049672736338 34.12 
1996 666 1 -1.054 10.0 31.28 7.0 
1997 666 2 0.527 10.585882276618294 32.03695032726366 7.0 
1998 666 2 0.527 10.585882276618294 30.52304967273634 7.0 
1999 667 1 -1.054 27.360000000000003 32.8 38.44 
2000 667 2 0.527 27.9458822766183 33.55695032726366 38.44 
2001 667 2 0.527 27.9458822766183 32.04304967273634 38.44 
2002 668 1 -1.054 12.48 2.04 4.8 
2003 668 2 0.527 13.065882276618295 2.796950327263661 4.8 
2004 668 2 0.527 13.065882276618295 1.2830496727363387 4.8 
2005 669 1 -1.054 9.399999999999999 12.68 37.120000000000005 
2006 669 2 0.527 9.985882276618295 13.436950327263661 37.120000000000005 
2007 669 2 0.527 9.985882276618295 11.923049672736338 37.120000000000005 
2008 670 1 -1.054 1.96 27.28 22.799999999999997 
2009 670 2 0.527 2.5458822766182947 28.036950327263664 22.799999999999997 
2010 670 2 0.527 2.5458822766182947 26.52304967273634 22.799999999999997 
2011 671 1 -1.054 31.080000000000002 32.76 21.400000000000002 
2012 671 2 0.527 31.665882276618298 33.51695032726366 21.400000000000002 
2013 671 2 0.527 31.665882276618298 32.00304967273634 21.400000000000002 
2014 672 1 -1.054 37.559999999999995 6.6000000000000005 18.6 
2015 672 2 0.527 38.145882276618295 7.356950327263662 18.6 
2016 672 2 0.527 38.145882276618295 5.843049672736339 18.6 
2017 673 1 -1.054 23.88 7.119999999999999 34.16 
2018 673 2 0.527 24.465882276618295 7.8769503272636605 34.16 
2019 673 2 0.527 24.465882276618295 6.363049672736338 34.16 
2020 674 1 -1.054 23.439999999999998 12.16 11.719999999999999 
2021 674 2 0.527 24.025882276618297 12.916950327263661 11.719999999999999 
2022 674 2 0.527 24.025882276618297 11.403049672736339 11.719999999999999 
2023 675 1 -1.054 9.44 11.719999999999999 28.08 
2024 675 2 0.527 10.025882276618294 12.47695032726366 28.08 
2025 675 2 0.527 10.025882276618294 10.963049672736338 28.08 
2026 676 1 -1.054 15.32 12.04 28.759999999999998 
2027 676 2 0.527 15.905882276618295 12.79695032726366 28.759999999999998 
2028 676 2 0.527 15.905882276618295 11.283049672736338 28.759999999999998 
2029 677 1 -1.054 24.84 30.72 32.879999999999995 
2030 677 2 0.527 25.425882276618296 31.476950327263662 32.879999999999995 
2031 677 2 0.527 25.425882276618296 29.96304967273634 32.879999999999995 
2032 678 1 -1.054 11.240000000000002 12.0 34.76 
2033 678 2 0.527 11.825882276618296 12.756950327263661 34.76 
2034 678 2 0.527 11.825882276618296 11.243049672736339 34.76 
2035 679 1 -1.054 18.88 17.48 17.28 
2036 679 2 0.527 19.465882276618295 18.23695032726366 17.28 
2037 679 2 0.527 19.465882276618295 16.723049672736337 17.28 
2038 680 1 -1.054 20.4 33.0 18.36 
2039 680 2 0.527 20.985882276618298 33.75695032726366 18.36 
2040 680 2 0.527 20.985882276618298 32.24304967273633 18.36 
2041 681 1 -1.054 10.88 21.36 9.8 
2042 681 2 0.527 11.465882276618295 22.116950327263663 9.8 
2043 681 2 0.527 11.465882276618295 20.60304967273634 9.8 
2044 682 1 -1.054 26.0 9.84 19.4 
2045 682 2 0.527 26.5858822766183 10.596950327263661 19.4 
2046 682 2 0.527 26.5858822766183 9.083049672736339 19.4 
2047 683 1 -1.054 3.4000000000000004 3.3200000000000003 29.04 
2048 683 2 0.527 3.985882276618295 4.076950327263662 29.04 
2049 683 2 0.527 3.985882276618295 2.563049672736339 29.04 
2050 684 1 -1.054 31.560000000000002 17.16 17.76 
2051 684 2 0.527 32.145882276618295 17.91695032726366 17.76 
2052 684 2 0.527 32.145882276618295 16.403049672736337 17.76 
2053 685 1 -1.054 3.96 33.36 24.72 
2054 685 2 0.527 4.545882276618295 34.11695032726366 24.72 
2055 685 2 0.527 4.545882276618295 32.60304967273634 24.72 
2056 686 1 -1.054 28.68 23.599999999999998 11.479999999999999 
2057 686 2 0.527 29.265882276618296 24.35695032726366 11.479999999999999 
2058 686 2 0.527 29.265882276618296 22.84304967273634 11.479999999999999 
2059 687 1 -1.054 5.68 4.28 8.36 
2060 687 2 0.527 6.265882276618294 5.036950327263661 8.36 
2061 687 2 0.527 6.265882276618294 3.5230496727363385 8.36 
2062 688 1 -1.054 23.96 16.52 4.5200000000000005 
2063 688 2 0.527 24.545882276618297 17.27695032726366 4.5200000000000005 
2064 688 2 0.527 24.545882276618297 15.763049672736338 4.5200000000000005 
2065 689 1 -1.054 29.4 38.96 5.5200000000000005 
2066 689 2 0.527 29.985882276618298 39.71695032726366 5.5200000000000005 
2067 689 2 0.527 29.985882276618298 38.20304967273634 5.5200000000000005 
2068 690 1 -1.054 34.28 32.72 19.4 
2069 690 2 0.527 34.865882276618294 33.47695032726366 19.4 
2070 690 2 0.527 34.865882276618294 31.963049672736336 19.4 
2071 691 1 -1.054 24.6 37.68 6.92 
2072 691 2 0.527 25.185882276618297 38.43695032726366 6.92 
2073 691 2 0.527 25.185882276618297 36.92304967273634 6.92 
2074 692 1 -1.054 16.36 8.28 10.36 
2075 692 2 0.527 16.945882276618292 9.03695032726366 10.36 
2076 692 2 0.527 16.945882276618292 7.523049672736338 10.36 
2077 693 1 -1.054 38.199999999999996 26.720000000000002 3.7199999999999998 
2078 693 2 0.527 38.785882276618295 27.476950327263662 3.7199999999999998 
2079 693 2 0.527 38.785882276618295 25.96304967273634 3.7199999999999998 
2080 694 1 -1.054 32.32 7.720000000000001 11.479999999999999 
2081 694 2 0.527 32.9058822766183 8.476950327263662 11.479999999999999 
2082 694 2 0.527 32.9058822766183 6.963049672736339 11.479999999999999 
2083 695 1 -1.054 18.84 22.160000000000004 13.680000000000001 
2084 695 2 0.527 19.425882276618292 22.916950327263663 13.680000000000001 
2085 695 2 0.527 19.425882276618292 21.40304967273634 13.680000000000001 
2086 696 1 -1.054 22.32 25.92 15.64 
2087 696 2 0.527 22.9058822766183 26.67695032726366 15.64 
2088 696 2 0.527 22.9058822766183 25.16304967273634 15.64 
2089 697 1 -1.054 31.720000000000002 27.519999999999996 23.04 
2090 697 2 0.527 32.3058822766183 28.27695032726366 23.04 
2091 697 2 0.527 32.3058822766183 26.763049672736337 23.04 
2092 698 1 -1.054 6.36 25.6 24.759999999999998 
2093 698 2 0.527 6.945882276618295 26.35695032726366 24.759999999999998 
2094 698 2 0.527 6.945882276618295 24.84304967273634 24.759999999999998 
2095 699 1 -1.054 12.4 18.0 9.44 
2096 699 2 0.527 12.985882276618295 18.756950327263663 9.44 
2097 699 2 0.527 12.985882276618295 17.24304967273634 9.44 
2098 700 1 -1.054 31.96 23.799999999999997 39.24 
2099 700 2 0.527 32.5458822766183 24.55695032726366 39.24 
2100 700 2 0.527 32.5458822766183 23.043049672736338 39.24 
2101 701 1 -1.054 8.08 21.720000000000002 15.64 
2102 701 2 0.527 8.665882276618294 22.476950327263662 15.64 
2103 701 2 0.527 8.665882276618294 20.96304967273634 15.64 
2104 702 1 -1.054 17.12 26.8 28.919999999999998 
2105 702 2 0.527 17.705882276618294 27.556950327263664 28.919999999999998 
2106 702 2 0.527 17.705882276618294 26.04304967273634 28.919999999999998 
2107 703 1 -1.054 1.1600000000000001 39.6 8.64 
2108 703 2 0.527 1.7458822766182949 40.35695032726366 8.64 
2109 703 2 0.527 1.7458822766182949 38.84304967273634 8.64 
2110 704 1 -1.054 37.36 23.96 4.0 
2111 704 2 0.527 37.9458822766183 24.71695032726366 4.0 
2112 704 2 0.527 37.9458822766183 23.203049672736338 4.0 
2113 705 1 -1.054 22.040000000000003 21.36 15.16 
2114 705 2 0.527 22.6258822766183 22.116950327263663 15.16 
2115 705 2 0.527 22.6258822766183 20.60304967273634 15.16 
2116 706 1 -1.054 38.64 20.68 17.84 
2117 706 2 0.527 39.22588227661829 21.436950327263663 17.84 
2118 706 2 0.527 39.22588227661829 19.92304967273634 17.84 
2119 707 1 -1.054 2.92 6.5200000000000005 1.96 
2120 707 2 0.527 3.5058822766182947 7.276950327263662 1.96 
2121 707 2 0.527 3.5058822766182947 5.763049672736339 1.96 
2122 708 1 -1.054 20.84 12.04 12.6 
2123 708 2 0.527 21.425882276618296 12.79695032726366 12.6 
2124 708 2 0.527 21.425882276618296 11.283049672736338 12.6 
2125 709 1 -1.054 5.76 14.12 8.68 
2126 709 2 0.527 6.345882276618294 14.87695032726366 8.68 
2127 709 2 0.527 6.345882276618294 13.363049672736338 8.68 
2128 710 1 -1.054 8.0 17.16 2.3200000000000003 
2129 710 2 0.527 8.585882276618296 17.91695032726366 2.3200000000000003 
2130 710 2 0.527 8.585882276618296 16.403049672736337 2.3200000000000003 
2131 711 1 -1.054 33.92 14.64 28.88 
2132 711 2 0.527 34.505882276618294 15.39695032726366 28.88 
2133 711 2 0.527 34.505882276618294 13.883049672736337 28.88 
2134 712 1 -1.054 30.52 4.76 18.84 
2135 712 2 0.527 31.105882276618296 5.516950327263661 18.84 
2136 712 2 0.527 31.105882276618296 4.0030496727363385 18.84 
2137 713 1 -1.054 33.92 13.72 31.240000000000002 
2138 713 2 0.527 34.505882276618294 14.476950327263662 31.240000000000002 
2139 713 2 0.527 34.505882276618294 12.96304967273634 31.240000000000002 
2140 714 1 -1.054 33.56 9.96 24.72 
2141 714 2 0.527 34.145882276618295 10.71695032726366 24.72 
2142 714 2 0.527 34.145882276618295 9.203049672736338 24.72 
2143 715 1 -1.054 21.44 18.080000000000002 3.8 
2144 715 2 0.527 22.025882276618297 18.83695032726366 3.8 
2145 715 2 0.527 22.025882276618297 17.32304967273634 3.8 
2146 716 1 -1.054 24.32 22.599999999999998 6.840000000000001 
2147 716 2 0.527 24.905882276618296 23.35695032726366 6.840000000000001 
2148 716 2 0.527 24.905882276618296 21.843049672736335 6.840000000000001 
2149 717 1 -1.054 33.6 30.560000000000002 20.96 
2150 717 2 0.527 34.185882276618294 31.316950327263662 20.96 
2151 717 2 0.527 34.185882276618294 29.80304967273634 20.96 
2152 718 1 -1.054 0.28 36.92 9.96 
2153 718 2 0.527 0.865882276618295 37.67695032726366 9.96 
2154 718 2 0.527 0.865882276618295 36.16304967273634 9.96 
2155 719 1 -1.054 22.68 1.7999999999999998 32.0 
2156 719 2 0.527 23.265882276618296 2.556950327263661 32.0 
2157 719 2 0.527 23.265882276618296 1.0430496727363388 32.0 
2158 720 1 -1.054 17.92 38.36 38.64 
2159 720 2 0.527 18.505882276618294 39.11695032726366 38.64 
2160 720 2 0.527 18.505882276618294 37.60304967273634 38.64 
2161 721 1 -1.054 18.919999999999998 26.28 14.12 
2162 721 2 0.527 19.505882276618294 27.03695032726366 14.12 
2163 721 2 0.527 19.505882276618294 25.52304967273634 14.12 
2164 722 1 -1.054 24.96 1.48 10.920000000000002 
2165 722 2 0.527 25.545882276618297 2.236950327263661 10.920000000000002 
2166 722 2 0.527 25.545882276618297 0.7230496727363388 10.920000000000002 
2167 723 1 -1.054 20.64 30.2 38.08 
2168 723 2 0.527 21.225882276618297 30.956950327263662 38.08 
2169 723 2 0.527 21.225882276618297 29.44304967273634 38.08 
2170 724 1 -1.054 25.84 6.800000000000001 38.08 
2171 724 2 0.527 26.425882276618296 7.556950327263662 38.08 
2172 724 2 0.527 26.425882276618296 6.043049672736339 38.08 
2173 725 1 -1.054 37.72 8.68 26.92 
2174 725 2 0.527 38.30588227661829 9.436950327263661 26.92 
2175 725 2 0.527 38.30588227661829 7.923049672736338 26.92 
2176 726 1 -1.054 36.4 36.28 9.84 
2177 726 2 0.527 36.9858822766183 37.03695032726366 9.84 
2178 726 2 0.527 36.9858822766183 35.52304967273634 9.84 
2179 727 1 -1.054 28.64 0.4 13.879999999999999 
2180 727 2 0.527 29.225882276618297 1.1569503272636612 13.879999999999999 
2181 727 2 0.527 29.225882276618297 -0.35695032726366116 13.879999999999999 
2182 728 1 -1.054 10.48 32.36 2.08 
2183 728 2 0.527 11.065882276618295 33.116950327263666 2.08 
2184 728 2 0.527 11.065882276618295 31.60304967273634 2.08 
2185 729 1 -1.054 36.96 28.439999999999998 22.959999999999997 
2186 729 2 0.527 37.5458822766183 29.19695032726366 22.959999999999997 
2187 729 2 0.527 37.5458822766183 27.683049672736338 22.959999999999997 
2188 730 1 -1.054 12.76 38.56 25.44 
2189 730 2 0.527 13.345882276618294 39.31695032726366 25.44 
2190 730 2 0.527 13.345882276618294 37.803049672736336 25.44 
2191 731 1 -1.054 16.240000000000002 28.08 23.279999999999998 
2192 731 2 0.527 16.825882276618294 28.836950327263658 23.279999999999998 
2193 731 2 0.527 16.825882276618294 27.32304967273634 23.279999999999998 
2194 732 1 -1.054 12.04 26.200000000000003 12.64 
2195 732 2 0.527 12.625882276618295 26.956950327263662 12.64 
2196 732 2 0.527 12.625882276618295 25.44304967273634 12.64 
2197 733 1 -1.054 12.84 10.56 21.16 
2198 733 2 0.527 13.425882276618296 11.316950327263662 21.16 
2199 733 2 0.527 13.425882276618296 9.80304967273634 21.16 
2200 734 1 -1.054 9.48 21.080000000000002 29.2 
2201 734 2 0.527 10.065882276618295 21.83695032726366 29.2 
2202 734 2 0.527 10.065882276618295 20.32304967273634 29.2 
2203 735 1 -1.054 27.72 16.439999999999998 25.52 
2204 735 2 0.527 28.305882276618295 17.19695032726366 25.52 
2205 735 2 0.527 28.305882276618295 15.683049672736338 25.52 
2206 736 1 -1.054 34.28 20.28 37.96 
2207 736 2 0.527 34.865882276618294 21.03695032726366 37.96 
2208 736 2 0.527 34.865882276618294 19.523049672736338 37.96 
2209 737 1 -1.054 3.76 30.16 12.2 
2210 737 2 0.527 4.345882276618295 30.916950327263663 12.2 
2211 737 2 0.527 4.345882276618295 29.403049672736337 12.2 
2212 738 1 -1.054 6.0 36.480000000000004 10.8 
2213 738 2 0.527 6.585882276618294 37.23695032726366 10.8 
2214 738 2 0.527 6.585882276618294 35.72304967273634 10.8 
2215 739 1 -1.054 33.56 30.32 26.080000000000002 
2216 739 2 0.527 34.145882276618295 31.07695032726366 26.080000000000002 
2217 739 2 0.527 34.145882276618295 29.56304967273634 26.080000000000002 
2218 740 1 -1.054 7.6 39.08 12.36 
2219 740 2 0.527 8.185882276618294 39.83695032726366 12.36 
2220 740 2 0.527 8.185882276618294 38.32304967273634 12.36 
2221 741 1 -1.054 2.7600000000000002 20.72 23.759999999999998 
2222 741 2 0.527 3.345882276618295 21.476950327263662 23.759999999999998 
2223 741 2 0.527 3.345882276618295 19.96304967273634 23.759999999999998 
2224 742 1 -1.054 4.680000000000001 14.32 23.279999999999998 
2225 742 2 0.527 5.265882276618296 15.07695032726366 23.279999999999998 
2226 742 2 0.527 5.265882276618296 13.563049672736337 23.279999999999998 
2227 743 1 -1.054 34.68 1.08 36.28 
2228 743 2 0.527 35.2658822766183 1.8369503272636611 36.28 
2229 743 2 0.527 35.2658822766183 0.32304967273633883 36.28 
2230 744 1 -1.054 39.08 1.7199999999999998 15.04 
2231 744 2 0.527 39.6658822766183 2.476950327263661 15.04 
2232 744 2 0.527 39.6658822766183 0.9630496727363387 15.04 
2233 745 1 -1.054 10.52 14.6 0.72 
2234 745 2 0.527 11.105882276618296 15.356950327263661 0.72 
2235 745 2 0.527 11.105882276618296 13.843049672736338 0.72 
2236 746 1 -1.054 25.36 34.64 38.56 
2237 746 2 0.527 25.9458822766183 35.39695032726366 38.56 
2238 746 2 0.527 25.9458822766183 33.88304967273634 38.56 
2239 747 1 -1.054 4.96 13.520000000000001 38.96 
2240 747 2 0.527 5.545882276618295 14.276950327263663 38.96 
2241 747 2 0.527 5.545882276618295 12.76304967273634 38.96 
2242 748 1 -1.054 20.32 18.16 15.0 
2243 748 2 0.527 20.905882276618296 18.916950327263663 15.0 
2244 748 2 0.527 20.905882276618296 17.40304967273634 15.0 
2245 749 1 -1.054 34.64 6.16 0.76 
2246 749 2 0.527 35.22588227661829 6.916950327263661 0.76 
2247 749 2 0.527 35.22588227661829 5.403049672736339 0.76 
2248 750 1 -1.054 7.720000000000001 7.68 14.76 
2249 750 2 0.527 8.305882276618295 8.436950327263661 14.76 
2250 750 2 0.527 8.305882276618295 6.923049672736338 14.76 
2251 751 1 -1.054 20.28 19.32 10.48 
2252 751 2 0.527 20.865882276618297 20.07695032726366 10.48 
2253 751 2 0.527 20.865882276618297 18.563049672736337 10.48 
2254 752 1 -1.054 14.559999999999999 31.0 32.24 
2255 752 2 0.527 15.145882276618295 31.756950327263663 32.24 
2256 752 2 0.527 15.145882276618295 30.24304967273634 32.24 
2257 753 1 -1.054 14.52 27.88 4.5200000000000005 
2258 753 2 0.527 15.105882276618294 28.63695032726366 4.5200000000000005 
2259 753 2 0.527 15.105882276618294 27.123049672736336 4.5200000000000005 
2260 754 1 -1.054 10.08 34.68 28.88 
2261 754 2 0.527 10.665882276618294 35.43695032726366 28.88 
2262 754 2 0.527 10.665882276618294 33.92304967273634 28.88 
2263 755 1 -1.054 23.84 0.43999999999999995 26.6 
2264 755 2 0.527 24.425882276618296 1.1969503272636612 26.6 
2265 755 2 0.527 24.425882276618296 -0.3169503272636612 26.6 
2266 756 1 -1.054 16.759999999999998 13.600000000000001 25.72 
2267 756 2 0.527 17.345882276618294 14.356950327263663 25.72 
2268 756 2 0.527 17.345882276618294 12.84304967273634 25.72 
2269 757 1 -1.054 1.2 9.08 6.04 
2270 757 2 0.527 1.785882276618295 9.836950327263661 6.04 
2271 757 2 0.527 1.785882276618295 8.323049672736339 6.04 
2272 758 1 -1.054 27.839999999999996 16.64 22.200000000000003 
2273 758 2 0.527 28.425882276618296 17.39695032726366 22.200000000000003 
2274 758 2 0.527 28.425882276618296 15.883049672736337 22.200000000000003 
2275 759 1 -1.054 12.92 24.119999999999997 22.12 
2276 759 2 0.527 13.505882276618294 24.87695032726366 22.12 
2277 759 2 0.527 13.505882276618294 23.363049672736338 22.12 
2278 760 1 -1.054 20.4 31.6 35.84 
2279 760 2 0.527 20.985882276618298 32.35695032726366 35.84 
2280 760 2 0.527 20.985882276618298 30.843049672736342 35.84 
2281 761 1 -1.054 9.44 28.0 5.88 
2282 761 2 0.527 10.025882276618294 28.75695032726366 5.88 
2283 761 2 0.527 10.025882276618294 27.243049672736337 5.88 
2284 762 1 -1.054 28.08 0.24 30.28 
2285 762 2 0.527 28.665882276618294 0.9969503272636613 30.28 
2286 762 2 0.527 28.665882276618294 -0.5169503272636612 30.28 
2287 763 1 -1.054 31.16 15.56 23.759999999999998 
2288 763 2 0.527 31.745882276618296 16.316950327263662 23.759999999999998 
2289 763 2 0.527 31.745882276618296 14.80304967273634 23.759999999999998 
2290 764 1 -1.054 9.64 7.199999999999999 1.7999999999999998 
2291 764 2 0.527 10.225882276618295 7.956950327263661 1.7999999999999998 
2292 764 2 0.527 10.225882276618295 6.443049672736338 1.7999999999999998 
2293 765 1 -1.054 13.64 13.24 11.479999999999999 
2294 765 2 0.527 14.225882276618297 13.996950327263662 11.479999999999999 
2295 765 2 0.527 14.225882276618297 12.483049672736339 11.479999999999999 
2296 766 1 -1.054 25.880000000000003 21.64 19.32 
2297 766 2 0.527 26.4658822766183 22.396950327263664 19.32 
2298 766 2 0.527 26.4658822766183 20.88304967273634 19.32 
2299 767 1 -1.054 30.36 14.239999999999998 2.44 
2300 767 2 0.527 30.9458822766183 14.996950327263662 2.44 
2301 767 2 0.527 30.9458822766183 13.483049672736339 2.44 
2302 768 1 -1.054 26.48 14.079999999999998 22.44 
2303 768 2 0.527 27.065882276618296 14.836950327263661 22.44 
2304 768 2 0.527 27.065882276618296 13.323049672736339 22.44 
2305 769 1 -1.054 30.12 25.96 34.84 
2306 769 2 0.527 30.705882276618297 26.71695032726366 34.84 
2307 769 2 0.527 30.705882276618297 25.20304967273634 34.84 
2308 770 1 -1.054 27.32 21.080000000000002 25.44 
2309 770 2 0.527 27.9058822766183 21.83695032726366 25.44 
2310 770 2 0.527 27.9058822766183 20.32304967273634 25.44 
2311 771 1 -1.054 16.4 34.16 32.68 
2312 771 2 0.527 16.985882276618295 34.91695032726366 32.68 
2313 771 2 0.527 16.985882276618295 33.40304967273634 32.68 
2314 772 1 -1.054 30.68 10.68 34.08 
2315 772 2 0.527 31.2658822766183 11.436950327263663 34.08 
2316 772 2 0.527 31.2658822766183 9.92304967273634 34.08 
2317 773 1 -1.054 6.6000000000000005 35.4 21.48 
2318 773 2 0.527 7.185882276618295 36.15695032726366 21.48 
2319 773 2 0.527 7.185882276618295 34.64304967273634 21.48 
2320 774 1 -1.054 4.2 10.52 21.68 
2321 774 2 0.527 4.7858822766182945 11.276950327263663 21.68 
2322 774 2 0.527 4.7858822766182945 9.76304967273634 21.68 
2323 775 1 -1.054 15.16 8.6 7.52 
2324 775 2 0.527 15.745882276618294 9.356950327263661 7.52 
2325 775 2 0.527 15.745882276618294 7.843049672736338 7.52 
2326 776 1 -1.054 1.4000000000000001 36.72 19.84 
2327 776 2 0.527 1.985882276618295 37.476950327263665 19.84 
2328 776 2 0.527 1.985882276618295 35.96304967273634 19.84 
2329 777 1 -1.054 38.0 11.559999999999999 15.04 
2330 777 2 0.527 38.58588227661829 12.31695032726366 15.04 
2331 777 2 0.527 38.58588227661829 10.803049672736337 15.04 
2332 778 1 -1.054 23.68 37.400000000000006 22.28 
2333 778 2 0.527 24.265882276618296 38.156950327263665 22.28 
2334 778 2 0.527 24.265882276618296 36.64304967273634 22.28 
2335 779 1 -1.054 37.400000000000006 31.880000000000003 9.64 
2336 779 2 0.527 37.9858822766183 32.63695032726366 9.64 
2337 779 2 0.527 37.9858822766183 31.12304967273634 9.64 
2338 780 1 -1.054 36.120000000000005 15.88 19.24 
2339 780 2 0.527 36.7058822766183 16.636950327263662 19.24 
2340 780 2 0.527 36.7058822766183 15.12304967273634 19.24 
2341 781 1 -1.054 33.04 20.28 24.68 
2342 781 2 0.527 33.6258822766183 21.03695032726366 24.68 
2343 781 2 0.527 33.6258822766183 19.523049672736338 24.68 
2344 782 1 -1.054 37.24 24.92 6.720000000000001 
2345 782 2 0.527 37.8258822766183 25.67695032726366 6.720000000000001 
2346 782 2 0.527 37.8258822766183 24.16304967273634 6.720000000000001 
2347 783 1 -1.054 7.5600000000000005 9.879999999999999 3.96 
2348 783 2 0.527 8.145882276618295 10.636950327263662 3.96 
2349 783 2 0.527 8.145882276618295 9.12304967273634 3.96 
2350 784 1 -1.054 39.72 14.76 36.480000000000004 
2351 784 2 0.527 40.3058822766183 15.516950327263661 36.480000000000004 
2352 784 2 0.527 40.3058822766183 14.003049672736338 36.480000000000004 
2353 785 1 -1.054 38.76 36.68 39.92 
2354 785 2 0.527 39.3458822766183 37.43695032726366 39.92 
2355 785 2 0.527 39.3458822766183 35.92304967273634 39.92 
2356 786 1 -1.054 29.64 30.64 0.8400000000000001 
2357 786 2 0.527 30.225882276618297 31.39695032726366 0.8400000000000001 
2358 786 2 0.527 30.225882276618297 29.88304967273634 0.8400000000000001 
2359 787 1 -1.054 1.48 0.56 18.84 
2360 787 2 0.527 2.0658822766182947 1.3169503272636613 18.84 
2361 787 2 0.527 2.0658822766182947 -0.19695032726366113 18.84 
2362 788 1 -1.054 8.8 39.76 18.16 
2363 788 2 0.527 9.385882276618295 40.51695032726366 18.16 
2364 788 2 0.527 9.385882276618295 39.00304967273634 18.16 
2365 789 1 -1.054 19.88 26.76 35.84 
2366 789 2 0.527 20.465882276618295 27.516950327263665 35.84 
2367 789 2 0.527 20.465882276618295 26.00304967273634 35.84 
2368 790 1 -1.054 37.519999999999996 21.240000000000002 12.96 
2369 790 2 0.527 38.105882276618296 21.99695032726366 12.96 
2370 790 2 0.527 38.105882276618296 20.48304967273634 12.96 
2371 791 1 -1.054 22.44 3.2800000000000002 18.52 
2372 791 2 0.527 23.025882276618297 4.0369503272636615 18.52 
2373 791 2 0.527 23.025882276618297 2.523049672736339 18.52 
2374 792 1 -1.054 6.44 20.28 3.76 
2375 792 2 0.527 7.025882276618295 21.03695032726366 3.76 
2376 792 2 0.527 7.025882276618295 19.523049672736338 3.76 
2377 793 1 -1.054 32.8 33.8 27.44 
2378 793 2 0.527 33.3858822766183 34.556950327263664 27.44 
2379 793 2 0.527 33.3858822766183 33.04304967273634 27.44 
2380 794 1 -1.054 37.72 5.36 23.68 
2381 794 2 0.527 38.30588227661829 6.116950327263662 23.68 
2382 794 2 0.527 38.30588227661829 4.603049672736339 23.68 
2383 795 1 -1.054 22.32 7.48 17.48 
2384 795 2 0.527 22.9058822766183 8.236950327263662 17.48 
2385 795 2 0.527 22.9058822766183 6.723049672736339 17.48 
2386 796 1 -1.054 31.28 13.799999999999999 30.16 
2387 796 2 0.527 31.865882276618297 14.55695032726366 30.16 
2388 796 2 0.527 31.865882276618297 13.043049672736338 30.16 
2389 797 1 -1.054 30.0 32.440000000000005 16.04 
2390 797 2 0.527 30.585882276618296 33.196950327263664 16.04 
2391 797 2 0.527 30.585882276618296 31.68304967273634 16.04 
2392 798 1 -1.054 16.56 20.36 29.759999999999998 
2393 798 2 0.527 17.145882276618295 21.116950327263663 29.759999999999998 
2394 798 2 0.527 17.145882276618295 19.60304967273634 29.759999999999998 
2395 799 1 -1.054 8.92 2.3200000000000003 2.8000000000000003 
2396 799 2 0.527 9.505882276618294 3.076950327263661 2.8000000000000003 
2397 799 2 0.527 9.505882276618294 1.563049672736339 2.8000000000000003 
2398 800 1 -1.054 5.08 4.2 3.4399999999999995 
2399 800 2 0.527 5.665882276618294 4.9569503272636615 3.4399999999999995 
2400 800 2 0.527 5.665882276618294 3.4430496727363384 3.4399999999999995 
2401 801 1 -1.054 27.200000000000003 8.6 25.04 
2402 801 2 0.527 27.7858822766183 9.356950327263661 25.04 
2403 801 2 0.527 27.7858822766183 7.843049672736338 25.04 
2404 802 1 -1.054 34.36 8.0 16.96 
2405 802 2 0.527 34.9458822766183 8.756950327263661 16.96 
2406 802 2 0.527 34.9458822766183 7.243049672736339 16.96 
2407 803 1 -1.054 29.759999999999998 14.48 37.92 
2408 803 2 0.527 30.345882276618298 15.23695032726366 37.92 
2409 803 2 0.527 30.345882276618298 13.723049672736337 37.92 
2410 804 1 -1.054 37.28 12.4 3.6799999999999997 
2411 804 2 0.527 37.8658822766183 13.156950327263662 3.6799999999999997 
2412 804 2 0.527 37.8658822766183 11.643049672736339 3.6799999999999997 
2413 805 1 -1.054 26.36 22.799999999999997 34.72 
2414 805 2 0.527 26.9458822766183 23.55695032726366 34.72 
2415 805 2 0.527 26.9458822766183 22.043049672736338 34.72 
2416 806 1 -1.054 32.36 6.879999999999999 33.519999999999996 
2417 806 2 0.527 32.9458822766183 7.63695032726366 33.519999999999996 
2418 806 2 0.527 32.9458822766183 6.123049672736338 33.519999999999996 
2419 807 1 -1.054 14.84 4.48 3.0 
2420 807 2 0.527 15.425882276618294 5.236950327263661 3.0 
2421 807 2 0.527 15.425882276618294 3.7230496727363387 3.0 
2422 808 1 -1.054 26.200000000000003 37.28 30.36 
2423 808 2 0.527 26.7858822766183 38.03695032726366 30.36 
2424 808 2 0.527 26.7858822766183 36.52304967273634 30.36 
2425 809 1 -1.054 1.12 30.76 25.16 
2426 809 2 0.527 1.7058822766182948 31.51695032726366 25.16 
2427 809 2 0.527 1.7058822766182948 30.00304967273634 25.16 
2428 810 1 -1.054 19.04 5.08 36.96 
2429 810 2 0.527 19.625882276618295 5.836950327263661 36.96 
2430 810 2 0.527 19.625882276618295 4.323049672736339 36.96 
2431 811 1 -1.054 25.6 5.24 7.800000000000001 
2432 811 2 0.527 26.185882276618297 5.9969503272636615 7.800000000000001 
2433 811 2 0.527 26.185882276618297 4.483049672736339 7.800000000000001 
2434 812 1 -1.054 13.360000000000001 14.68 27.599999999999998 
2435 812 2 0.527 13.945882276618295 15.436950327263661 27.599999999999998 
2436 812 2 0.527 13.945882276618295 13.923049672736338 27.599999999999998 
2437 813 1 -1.054 22.88 8.48 31.720000000000002 
2438 813 2 0.527 23.465882276618295 9.236950327263662 31.720000000000002 
2439 813 2 0.527 23.465882276618295 7.723049672736338 31.720000000000002 
2440 814 1 -1.054 21.36 31.48 6.08 
2441 814 2 0.527 21.9458822766183 32.23695032726366 6.08 
2442 814 2 0.527 21.9458822766183 30.72304967273634 6.08 
2443 815 1 -1.054 39.56 35.8 29.28 
2444 815 2 0.527 40.145882276618295 36.556950327263664 29.28 
2445 815 2 0.527 40.145882276618295 35.04304967273634 29.28 
2446 816 1 -1.054 26.16 30.96 14.64 
2447 816 2 0.527 26.745882276618296 31.71695032726366 14.64 
2448 816 2 0.527 26.745882276618296 30.20304967273634 14.64 
2449 817 1 -1.054 6.08 24.24 35.16 
2450 817 2 0.527 6.665882276618294 24.99695032726366 35.16 
2451 817 2 0.527 6.665882276618294 23.48304967273634 35.16 
2452 818 1 -1.054 8.0 17.16 29.28 
2453 818 2 0.527 8.585882276618296 17.91695032726366 29.28 
2454 818 2 0.527 8.585882276618296 16.403049672736337 29.28 
2455 819 1 -1.054 26.48 27.0 32.839999999999996 
2456 819 2 0.527 27.065882276618296 27.756950327263663 32.839999999999996 
2457 819 2 0.527 27.065882276618296 26.24304967273634 32.839999999999996 
2458 820 1 -1.054 28.84 1.6400000000000001 35.0 
2459 820 2 0.527 29.425882276618296 2.396950327263661 35.0 
2460 820 2 0.527 29.425882276618296 0.8830496727363389 35.0 
2461 821 1 -1.054 6.5600000000000005 23.799999999999997 14.64 
2462 821 2 0.527 7.145882276618295 24.55695032726366 14.64 
2463 821 2 0.527 7.145882276618295 23.043049672736338 14.64 
2464 822 1 -1.054 34.92 29.64 1.24 
2465 822 2 0.527 35.505882276618294 30.39695032726366 1.24 
2466 822 2 0.527 35.505882276618294 28.883049672736337 1.24 
2467 823 1 -1.054 20.16 13.879999999999999 23.36 
2468 823 2 0.527 20.745882276618296 14.63695032726366 23.36 
2469 823 2 0.527 20.745882276618296 13.123049672736338 23.36 
2470 824 1 -1.054 7.720000000000001 38.12 24.08 
2471 824 2 0.527 8.305882276618295 38.87695032726366 24.08 
2472 824 2 0.527 8.305882276618295 37.36304967273634 24.08 
2473 825 1 -1.054 33.68 4.32 16.12 
2474 825 2 0.527 34.2658822766183 5.076950327263661 16.12 
2475 825 2 0.527 34.2658822766183 3.5630496727363385 16.12 
2476 826 1 -1.054 23.439999999999998 2.64 16.0 
2477 826 2 0.527 24.025882276618297 3.3969503272636614 16.0 
2478 826 2 0.527 24.025882276618297 1.8830496727363388 16.0 
2479 827 1 -1.054 14.559999999999999 29.08 13.600000000000001 
2480 827 2 0.527 15.145882276618295 29.83695032726366 13.600000000000001 
2481 827 2 0.527 15.145882276618295 28.32304967273634 13.600000000000001 
2482 828 1 -1.054 25.64 30.560000000000002 26.240000000000002 
2483 828 2 0.527 26.225882276618297 31.316950327263662 26.240000000000002 
2484 828 2 0.527 26.225882276618297 29.80304967273634 26.240000000000002 
2485 829 1 -1.054 6.16 15.440000000000001 29.72 
2486 829 2 0.527 6.745882276618294 16.19695032726366 29.72 
2487 829 2 0.527 6.745882276618294 14.683049672736338 29.72 
2488 830 1 -1.054 0.56 26.080000000000002 12.6 
2489 830 2 0.527 1.145882276618295 26.83695032726366 12.6 
2490 830 2 0.527 1.145882276618295 25.32304967273634 12.6 
2491 831 1 -1.054 4.32 32.0 14.48 
2492 831 2 0.527 4.905882276618295 32.75695032726367 14.48 
2493 831 2 0.527 4.905882276618295 31.24304967273634 14.48 
2494 832 1 -1.054 36.68 24.759999999999998 10.600000000000001 
2495 832 2 0.527 37.2658822766183 25.51695032726366 10.600000000000001 
2496 832 2 0.527 37.2658822766183 24.00304967273634 10.600000000000001 
2497 833 1 -1.054 19.8 0.8400000000000001 36.96 
2498 833 2 0.527 20.385882276618297 1.5969503272636612 36.96 
2499 833 2 0.527 20.385882276618297 0.0830496727363389 36.96 
2500 834 1 -1.054 33.48 36.0 20.48 
2501 834 2 0.527 34.0658822766183 36.75695032726366 20.48 
2502 834 2 0.527 34.0658822766183 35.24304967273634 20.48 
2503 835 1 -1.054 28.759999999999998 14.079999999999998 16.8 
2504 835 2 0.527 29.345882276618298 14.836950327263661 16.8 
2505 835 2 0.527 29.345882276618298 13.323049672736339 16.8 
2506 836 1 -1.054 4.8 21.520000000000003 8.48 
2507 836 2 0.527 5.385882276618295 22.276950327263663 8.48 
2508 836 2 0.527 5.385882276618295 20.76304967273634 8.48 
2509 837 1 -1.054 31.840000000000003 22.040000000000003 31.76 
2510 837 2 0.527 32.425882276618296 22.796950327263662 31.76 
2511 837 2 0.527 32.425882276618296 21.28304967273634 31.76 
2512 838 1 -1.054 16.64 36.24 15.68 
2513 838 2 0.527 17.225882276618293 36.99695032726366 15.68 
2514 838 2 0.527 17.225882276618293 35.48304967273634 15.68 
2515 839 1 -1.054 35.88 26.44 8.32 
2516 839 2 0.527 36.465882276618295 27.196950327263664 8.32 
2517 839 2 0.527 36.465882276618295 25.683049672736338 8.32 
2518 840 1 -1.054 30.6 21.840000000000003 29.24 
2519 840 2 0.527 31.185882276618297 22.596950327263663 29.24 
2520 840 2 0.527 31.185882276618297 21.08304967273634 29.24 
2521 841 1 -1.054 39.68 27.68 25.04 
2522 841 2 0.527 40.26588227661829 28.43695032726366 25.04 
2523 841 2 0.527 40.26588227661829 26.923049672736337 25.04 
2524 842 1 -1.054 18.720000000000002 29.52 27.44 
2525 842 2 0.527 19.305882276618295 30.276950327263663 27.44 
2526 842 2 0.527 19.305882276618295 28.763049672736337 27.44 
2527 843 1 -1.054 34.92 12.12 7.24 
2528 843 2 0.527 35.505882276618294 12.87695032726366 7.24 
2529 843 2 0.527 35.505882276618294 11.363049672736338 7.24 
2530 844 1 -1.054 23.08 5.32 13.16 
2531 844 2 0.527 23.665882276618294 6.076950327263662 13.16 
2532 844 2 0.527 23.665882276618294 4.563049672736339 13.16 
2533 845 1 -1.054 14.48 9.76 10.600000000000001 
2534 845 2 0.527 15.065882276618295 10.516950327263661 10.600000000000001 
2535 845 2 0.527 15.065882276618295 9.003049672736338 10.600000000000001 
2536 846 1 -1.054 13.32 16.96 24.52 
2537 846 2 0.527 13.905882276618296 17.71695032726366 24.52 
2538 846 2 0.527 13.905882276618296 16.203049672736338 24.52 
2539 847 1 -1.054 19.0 2.24 39.88 
2540 847 2 0.527 19.585882276618293 2.996950327263661 39.88 
2541 847 2 0.527 19.585882276618293 1.483049672736339 39.88 
2542 848 1 -1.054 0.28 24.439999999999998 20.08 
2543 848 2 0.527 0.865882276618295 25.19695032726366 20.08 
2544 848 2 0.527 0.865882276618295 23.683049672736338 20.08 
2545 849 1 -1.054 34.88 1.92 10.04 
2546 849 2 0.527 35.465882276618295 2.6769503272636612 10.04 
2547 849 2 0.527 35.465882276618295 1.1630496727363389 10.04 
2548 850 1 -1.054 38.04 2.68 9.08 
2549 850 2 0.527 38.6258822766183 3.4369503272636615 9.08 
2550 850 2 0.527 38.6258822766183 1.9230496727363389 9.08 
2551 851 1 -1.054 40.0 10.8 28.919999999999998 
2552 851 2 0.527 40.58588227661829 11.556950327263662 28.919999999999998 
2553 851 2 0.527 40.58588227661829 10.04304967273634 28.919999999999998 
2554 852 1 -1.054 39.4 33.12 5.16 
2555 852 2 0.527 39.9858822766183 33.87695032726366 5.16 
2556 852 2 0.527 39.9858822766183 32.36304967273634 5.16 
2557 853 1 -1.054 15.120000000000001 24.2 26.8 
2558 853 2 0.527 15.705882276618295 24.956950327263662 26.8 
2559 853 2 0.527 15.705882276618295 23.443049672736336 26.8 
2560 854 1 -1.054 3.7199999999999998 9.44 26.28 
2561 854 2 0.527 4.305882276618295 10.19695032726366 26.28 
2562 854 2 0.527 4.305882276618295 8.683049672736338 26.28 
2563 855 1 -1.054 18.48 29.119999999999997 35.6 
2564 855 2 0.527 19.065882276618296 29.87695032726366 35.6 
2565 855 2 0.527 19.065882276618296 28.363049672736338 35.6 
2566 856 1 -1.054 36.24 22.56 31.92 
2567 856 2 0.527 36.8258822766183 23.31695032726366 31.92 
2568 856 2 0.527 36.8258822766183 21.803049672736336 31.92 
2569 857 1 -1.054 32.879999999999995 19.36 15.280000000000001 
2570 857 2 0.527 33.465882276618295 20.11695032726366 15.280000000000001 
2571 857 2 0.527 33.465882276618295 18.60304967273634 15.280000000000001 
2572 858 1 -1.054 27.959999999999997 3.04 18.560000000000002 
2573 858 2 0.527 28.545882276618293 3.7969503272636613 18.560000000000002 
2574 858 2 0.527 28.545882276618293 2.2830496727363387 18.560000000000002 
2575 859 1 -1.054 26.36 7.359999999999999 14.36 
2576 859 2 0.527 26.9458822766183 8.11695032726366 14.36 
2577 859 2 0.527 26.9458822766183 6.603049672736338 14.36 
2578 860 1 -1.054 32.8 33.12 24.52 
2579 860 2 0.527 33.3858822766183 33.87695032726366 24.52 
2580 860 2 0.527 33.3858822766183 32.36304967273634 24.52 
2581 861 1 -1.054 11.200000000000001 5.76 23.24 
2582 861 2 0.527 11.785882276618295 6.516950327263661 23.24 
2583 861 2 0.527 11.785882276618295 5.0030496727363385 23.24 
2584 862 1 -1.054 36.52 39.72 26.76 
2585 862 2 0.527 37.105882276618296 40.47695032726366 26.76 
2586 862 2 0.527 37.105882276618296 38.96304967273634 26.76 
2587 863 1 -1.054 13.280000000000001 38.92 13.759999999999998 
2588 863 2 0.527 13.865882276618295 39.67695032726366 13.759999999999998 
2589 863 2 0.527 13.865882276618295 38.163049672736335 13.759999999999998 
2590 864 1 -1.054 9.16 10.72 16.16 
2591 864 2 0.527 9.745882276618294 11.476950327263662 16.16 
2592 864 2 0.527 9.745882276618294 9.96304967273634 16.16 
2593 865 1 -1.054 22.400000000000002 30.16 2.36 
2594 865 2 0.527 22.985882276618298 30.916950327263663 2.36 
2595 865 2 0.527 22.985882276618298 29.403049672736337 2.36 
2596 866 1 -1.054 33.68 1.2 26.04 
2597 866 2 0.527 34.2658822766183 1.9569503272636612 26.04 
2598 866 2 0.527 34.2658822766183 0.4430496727363388 26.04 
2599 867 1 -1.054 32.480000000000004 2.12 28.119999999999997 
2600 867 2 0.527 33.0658822766183 2.876950327263661 28.119999999999997 
2601 867 2 0.527 33.0658822766183 1.3630496727363388 28.119999999999997 
2602 868 1 -1.054 4.4 10.280000000000001 4.8 
2603 868 2 0.527 4.985882276618295 11.03695032726366 4.8 
2604 868 2 0.527 4.985882276618295 9.523049672736338 4.8 
2605 869 1 -1.054 17.0 35.24 3.4799999999999995 
2606 869 2 0.527 17.585882276618293 35.99695032726366 3.4799999999999995 
2607 869 2 0.527 17.585882276618293 34.48304967273634 3.4799999999999995 
2608 870 1 -1.054 29.52 25.6 4.08 
2609 870 2 0.527 30.105882276618296 26.35695032726366 4.08 
2610 870 2 0.527 30.105882276618296 24.84304967273634 4.08 
2611 871 1 -1.054 9.879999999999999 34.28 36.44 
2612 871 2 0.527 10.465882276618295 35.03695032726366 36.44 
2613 871 2 0.527 10.465882276618295 33.523049672736335 36.44 
2614 872 1 -1.054 30.2 12.52 0.24 
2615 872 2 0.527 30.785882276618295 13.27695032726366 0.24 
2616 872 2 0.527 30.785882276618295 11.763049672736338 0.24 
2617 873 1 -1.054 15.440000000000001 9.68 23.32 
2618 873 2 0.527 16.025882276618294 10.436950327263661 23.32 
2619 873 2 0.527 16.025882276618294 8.923049672736338 23.32 
2620 874 1 -1.054 13.879999999999999 9.96 39.72 
2621 874 2 0.527 14.465882276618293 10.71695032726366 39.72 
2622 874 2 0.527 14.465882276618293 9.203049672736338 39.72 
2623 875 1 -1.054 10.760000000000002 31.400000000000002 31.0 
2624 875 2 0.527 11.345882276618296 32.156950327263665 31.0 
2625 875 2 0.527 11.345882276618296 30.64304967273634 31.0 
2626 876 1 -1.054 12.28 3.4000000000000004 34.6 
2627 876 2 0.527 12.865882276618294 4.156950327263662 34.6 
2628 876 2 0.527 12.865882276618294 2.643049672736339 34.6 
2629 877 1 -1.054 4.92 1.8399999999999999 35.480000000000004 
2630 877 2 0.527 5.505882276618294 2.596950327263661 35.480000000000004 
2631 877 2 0.527 5.505882276618294 1.0830496727363388 35.480000000000004 
2632 878 1 -1.054 20.96 22.32 35.8 
2633 878 2 0.527 21.545882276618297 23.076950327263663 35.8 
2634 878 2 0.527 21.545882276618297 21.56304967273634 35.8 
2635 879 1 -1.054 29.0 9.559999999999999 11.719999999999999 
2636 879 2 0.527 29.585882276618296 10.316950327263662 11.719999999999999 
2637 879 2 0.527 29.585882276618296 8.80304967273634 11.719999999999999 
2638 880 1 -1.054 20.16 8.2 11.799999999999999 
2639 880 2 0.527 20.745882276618296 8.95695032726366 11.799999999999999 
2640 880 2 0.527 20.745882276618296 7.443049672736338 11.799999999999999 
2641 881 1 -1.054 1.96 24.24 38.4 
2642 881 2 0.527 2.5458822766182947 24.99695032726366 38.4 
2643 881 2 0.527 2.5458822766182947 23.48304967273634 38.4 
2644 882 1 -1.054 35.64 20.76 20.92 
2645 882 2 0.527 36.2258822766183 21.51695032726366 20.92 
2646 882 2 0.527 36.2258822766183 20.00304967273634 20.92 
2647 883 1 -1.054 38.199999999999996 25.32 24.4 
2648 883 2 0.527 38.785882276618295 26.07695032726366 24.4 
2649 883 2 0.527 38.785882276618295 24.56304967273634 24.4 
2650 884 1 -1.054 1.08 32.120000000000005 30.2 
2651 884 2 0.527 1.6658822766182948 32.876950327263664 30.2 
2652 884 2 0.527 1.6658822766182948 31.36304967273634 30.2 
2653 885 1 -1.054 7.359999999999999 28.0 38.08 
2654 885 2 0.527 7.945882276618295 28.75695032726366 38.08 
2655 885 2 0.527 7.945882276618295 27.243049672736337 38.08 
2656 886 1 -1.054 13.32 21.0 31.8 
2657 886 2 0.527 13.905882276618296 21.756950327263663 31.8 
2658 886 2 0.527 13.905882276618296 20.24304967273634 31.8 
2659 887 1 -1.054 11.080000000000002 28.56 39.2 
2660 887 2 0.527 11.665882276618296 29.316950327263662 39.2 
2661 887 2 0.527 11.665882276618296 27.803049672736336 39.2 
2662 888 1 -1.054 26.28 36.800000000000004 20.8 
2663 888 2 0.527 26.865882276618297 37.556950327263664 20.8 
2664 888 2 0.527 26.865882276618297 36.04304967273634 20.8 
2665 889 1 -1.054 0.76 0.52 5.24 
2666 889 2 0.527 1.345882276618295 1.2769503272636613 5.24 
2667 889 2 0.527 1.345882276618295 -0.23695032726366116 5.24 
2668 890 1 -1.054 11.6 26.240000000000002 3.8 
2669 890 2 0.527 12.185882276618294 26.99695032726366 3.8 
2670 890 2 0.527 12.185882276618294 25.48304967273634 3.8 
2671 891 1 -1.054 11.799999999999999 15.440000000000001 30.72 
2672 891 2 0.527 12.385882276618293 16.19695032726366 30.72 
2673 891 2 0.527 12.385882276618293 14.683049672736338 30.72 
2674 892 1 -1.054 17.52 38.72 30.0 
2675 892 2 0.527 18.105882276618296 39.47695032726366 30.0 
2676 892 2 0.527 18.105882276618296 37.96304967273634 30.0 
2677 893 1 -1.054 0.64 12.12 18.36 
2678 893 2 0.527 1.225882276618295 12.87695032726366 18.36 
2679 893 2 0.527 1.225882276618295 11.363049672736338 18.36 
2680 894 1 -1.054 26.400000000000002 18.799999999999997 26.68 
2681 894 2 0.527 26.985882276618298 19.55695032726366 26.68 
2682 894 2 0.527 26.985882276618298 18.043049672736338 26.68 
2683 895 1 -1.054 32.68 29.32 10.16 
2684 895 2 0.527 33.26588227661829 30.07695032726366 10.16 
2685 895 2 0.527 33.26588227661829 28.563049672736337 10.16 
2686 896 1 -1.054 34.48 18.919999999999998 31.76 
2687 896 2 0.527 35.0658822766183 19.67695032726366 31.76 
2688 896 2 0.527 35.0658822766183 18.16304967273634 31.76 
2689 897 1 -1.054 5.48 34.64 17.4 
2690 897 2 0.527 6.065882276618295 35.39695032726366 17.4 
2691 897 2 0.527 6.065882276618295 33.88304967273634 17.4 
2692 898 1 -1.054 39.72 30.0 27.32 
2693 898 2 0.527 40.3058822766183 30.75695032726366 27.32 
2694 898 2 0.527 40.3058822766183 29.24304967273634 27.32 
2695 899 1 -1.054 5.36 32.96 22.160000000000004 
2696 899 2 0.527 5.9458822766182955 33.71695032726366 22.160000000000004 
2697 899 2 0.527 5.9458822766182955 32.203049672736334 22.160000000000004 
2698 900 1 -1.054 38.4 2.8000000000000003 19.48 
2699 900 2 0.527 38.9858822766183 3.5569503272636616 19.48 
2700 900 2 0.527 38.9858822766183 2.043049672736339 19.48 
2701 901 1 -1.054 12.12 29.36 9.040000000000001 
2702 901 2 0.527 12.705882276618294 30.11695032726366 9.040000000000001 
2703 901 2 0.527 12.705882276618294 28.60304967273634 9.040000000000001 
2704 902 1 -1.054 8.52 1.52 10.4 
2705 902 2 0.527 9.105882276618294 2.276950327263661 10.4 
2706 902 2 0.527 9.105882276618294 0.7630496727363388 10.4 
2707 903 1 -1.054 26.840000000000003 31.48 4.12 
2708 903 2 0.527 27.4258822766183 32.23695032726366 4.12 
2709 903 2 0.527 27.4258822766183 30.72304967273634 4.12 
2710 904 1 -1.054 38.16 29.36 39.72 
2711 904 2 0.527 38.745882276618296 30.11695032726366 39.72 
2712 904 2 0.527 38.745882276618296 28.60304967273634 39.72 
2713 905 1 -1.054 7.880000000000001 0.28 5.68 
2714 905 2 0.527 8.465882276618295 1.036950327263661 5.68 
2715 905 2 0.527 8.465882276618295 -0.47695032726366116 5.68 
2716 906 1 -1.054 33.92 38.839999999999996 33.72 
2717 906 2 0.527 34.505882276618294 39.59695032726366 33.72 
2718 906 2 0.527 34.505882276618294 38.08304967273634 33.72 
2719 907 1 -1.054 11.080000000000002 39.16 21.0 
2720 907 2 0.527 11.665882276618296 39.91695032726366 21.0 
2721 907 2 0.527 11.665882276618296 38.40304967273634 21.0 
2722 908 1 -1.054 19.92 10.0 32.8 
2723 908 2 0.527 20.505882276618298 10.756950327263661 32.8 
2724 908 2 0.527 20.505882276618298 9.243049672736339 32.8 
2725 909 1 -1.054 36.2 36.92 37.96 
2726 909 2 0.527 36.785882276618295 37.67695032726366 37.96 
2727 909 2 0.527 36.785882276618295 36.16304967273634 37.96 
2728 910 1 -1.054 18.36 14.079999999999998 34.8 
2729 910 2 0.527 18.945882276618295 14.836950327263661 34.8 
2730 910 2 0.527 18.945882276618295 13.323049672736339 34.8 
2731 911 1 -1.054 32.36 21.840000000000003 11.559999999999999 
2732 911 2 0.527 32.9458822766183 22.596950327263663 11.559999999999999 
2733 911 2 0.527 32.9458822766183 21.08304967273634 11.559999999999999 
2734 912 1 -1.054 31.64 8.120000000000001 19.32 
2735 912 2 0.527 32.2258822766183 8.876950327263662 19.32 
2736 912 2 0.527 32.2258822766183 7.36304967273634 19.32 
2737 913 1 -1.054 33.879999999999995 9.52 27.56 
2738 913 2 0.527 34.465882276618295 10.27695032726366 27.56 
2739 913 2 0.527 34.465882276618295 8.763049672736338 27.56 
2740 914 1 -1.054 13.4 1.32 0.64 
2741 914 2 0.527 13.985882276618295 2.0769503272636616 0.64 
2742 914 2 0.527 13.985882276618295 0.5630496727363389 0.64 
2743 915 1 -1.054 21.32 35.68 10.120000000000001 
2744 915 2 0.527 21.9058822766183 36.43695032726366 10.120000000000001 
2745 915 2 0.527 21.9058822766183 34.92304967273634 10.120000000000001 
2746 916 1 -1.054 6.28 26.720000000000002 10.36 
2747 916 2 0.527 6.8658822766182945 27.476950327263662 10.36 
2748 916 2 0.527 6.8658822766182945 25.96304967273634 10.36 
2749 917 1 -1.054 6.24 2.7600000000000002 38.199999999999996 
2750 917 2 0.527 6.8258822766182945 3.5169503272636615 38.199999999999996 
2751 917 2 0.527 6.8258822766182945 2.003049672736339 38.199999999999996 
2752 918 1 -1.054 18.44 29.64 18.04 
2753 918 2 0.527 19.025882276618297 30.39695032726366 18.04 
2754 918 2 0.527 19.025882276618297 28.883049672736337 18.04 
2755 919 1 -1.054 34.8 34.0 9.8 
2756 919 2 0.527 35.3858822766183 34.75695032726366 9.8 
2757 919 2 0.527 35.3858822766183 33.24304967273634 9.8 
2758 920 1 -1.054 10.920000000000002 6.32 11.52 
2759 920 2 0.527 11.505882276618296 7.076950327263662 11.52 
2760 920 2 0.527 11.505882276618296 5.563049672736339 11.52 
2761 921 1 -1.054 9.8 31.840000000000003 19.72 
2762 921 2 0.527 10.385882276618295 32.59695032726366 19.72 
2763 921 2 0.527 10.385882276618295 31.08304967273634 19.72 
2764 922 1 -1.054 18.799999999999997 31.520000000000003 4.72 
2765 922 2 0.527 19.385882276618293 32.27695032726366 4.72 
2766 922 2 0.527 19.385882276618293 30.76304967273634 4.72 
2767 923 1 -1.054 33.96 24.56 36.04 
2768 923 2 0.527 34.54588227661829 25.316950327263662 36.04 
2769 923 2 0.527 34.54588227661829 23.80304967273634 36.04 
2770 924 1 -1.054 22.0 10.96 39.12 
2771 924 2 0.527 22.5858822766183 11.716950327263662 39.12 
2772 924 2 0.527 22.5858822766183 10.20304967273634 39.12 
2773 925 1 -1.054 29.32 24.2 0.32 
2774 925 2 0.527 29.905882276618296 24.956950327263662 0.32 
2775 925 2 0.527 29.905882276618296 23.443049672736336 0.32 
2776 926 1 -1.054 15.16 4.680000000000001 15.2 
2777 926 2 0.527 15.745882276618294 5.436950327263661 15.2 
2778 926 2 0.527 15.745882276618294 3.923049672736339 15.2 
2779 927 1 -1.054 39.44 8.6 23.479999999999997 
2780 927 2 0.527 40.02588227661829 9.356950327263661 23.479999999999997 
2781 927 2 0.527 40.02588227661829 7.843049672736338 23.479999999999997 
2782 928 1 -1.054 39.16 19.759999999999998 4.680000000000001 
2783 928 2 0.527 39.745882276618296 20.51695032726366 4.680000000000001 
2784 928 2 0.527 39.745882276618296 19.00304967273634 4.680000000000001 
2785 929 1 -1.054 34.64 30.16 36.08 
2786 929 2 0.527 35.22588227661829 30.916950327263663 36.08 
2787 929 2 0.527 35.22588227661829 29.403049672736337 36.08 
2788 930 1 -1.054 25.08 15.600000000000001 38.879999999999995 
2789 930 2 0.527 25.665882276618298 16.35695032726366 38.879999999999995 
2790 930 2 0.527 25.665882276618298 14.843049672736338 38.879999999999995 
2791 931 1 -1.054 24.8 30.16 20.0 
2792 931 2 0.527 25.385882276618297 30.916950327263663 20.0 
2793 931 2 0.527 25.385882276618297 29.403049672736337 20.0 
2794 932 1 -1.054 34.68 32.8 1.92 
2795 932 2 0.527 35.2658822766183 33.55695032726366 1.92 
2796 932 2 0.527 35.2658822766183 32.04304967273634 1.92 
2797 933 1 -1.054 14.68 15.04 1.24 
2798 933 2 0.527 15.265882276618294 15.796950327263662 1.24 
2799 933 2 0.527 15.265882276618294 14.28304967273634 1.24 
2800 934 1 -1.054 14.84 29.24 26.32 
2801 934 2 0.527 15.425882276618294 29.99695032726366 26.32 
2802 934 2 0.527 15.425882276618294 28.48304967273634 26.32 
2803 935 1 -1.054 15.56 33.48 13.680000000000001 
2804 935 2 0.527 16.145882276618295 34.236950327263656 13.680000000000001 
2805 935 2 0.527 16.145882276618295 32.72304967273634 13.680000000000001 
2806 936 1 -1.054 33.879999999999995 12.72 14.52 
2807 936 2 0.527 34.465882276618295 13.476950327263662 14.52 
2808 936 2 0.527 34.465882276618295 11.96304967273634 14.52 
2809 937 1 -1.054 23.279999999999998 38.12 13.520000000000001 
2810 937 2 0.527 23.865882276618294 38.87695032726366 13.520000000000001 
2811 937 2 0.527 23.865882276618294 37.36304967273634 13.520000000000001 
2812 938 1 -1.054 3.16 40.0 29.119999999999997 
2813 938 2 0.527 3.745882276618295 40.75695032726366 29.119999999999997 
2814 938 2 0.527 3.745882276618295 39.24304967273634 29.119999999999997 
2815 939 1 -1.054 15.96 29.56 36.4 
2816 939 2 0.527 16.545882276618297 30.316950327263662 36.4 
2817 939 2 0.527 16.545882276618297 28.80304967273634 36.4 
2818 940 1 -1.054 24.96 3.6399999999999997 24.84 
2819 940 2 0.527 25.545882276618297 4.396950327263661 24.84 
2820 940 2 0.527 25.545882276618297 2.8830496727363384 24.84 
2821 941 1 -1.054 29.08 9.96 21.840000000000003 
2822 941 2 0.527 29.665882276618298 10.71695032726366 21.840000000000003 
2823 941 2 0.527 29.665882276618298 9.203049672736338 21.840000000000003 
2824 942 1 -1.054 21.76 3.88 24.56 
2825 942 2 0.527 22.345882276618298 4.636950327263661 24.56 
2826 942 2 0.527 22.345882276618298 3.1230496727363386 24.56 
2827 943 1 -1.054 18.2 21.0 9.68 
2828 943 2 0.527 18.785882276618295 21.756950327263663 9.68 
2829 943 2 0.527 18.785882276618295 20.24304967273634 9.68 
2830 944 1 -1.054 4.5200000000000005 39.28 10.96 
2831 944 2 0.527 5.105882276618296 40.03695032726366 10.96 
2832 944 2 0.527 5.105882276618296 38.523049672736335 10.96 
2833 945 1 -1.054 2.96 17.16 1.52 
2834 945 2 0.527 3.5458822766182947 17.91695032726366 1.52 
2835 945 2 0.527 3.5458822766182947 16.403049672736337 1.52 
2836 946 1 -1.054 35.16 24.56 18.32 
2837 946 2 0.527 35.745882276618296 25.316950327263662 18.32 
2838 946 2 0.527 35.745882276618296 23.80304967273634 18.32 
2839 947 1 -1.054 25.32 23.04 22.480000000000004 
2840 947 2 0.527 25.905882276618296 23.79695032726366 22.480000000000004 
2841 947 2 0.527 25.905882276618296 22.283049672736336 22.480000000000004 
2842 948 1 -1.054 9.64 26.48 24.96 
2843 948 2 0.527 10.225882276618295 27.236950327263663 24.96 
2844 948 2 0.527 10.225882276618295 25.72304967273634 24.96 
2845 949 1 -1.054 21.44 26.92 38.56 
2846 949 2 0.527 22.025882276618297 27.67695032726366 38.56 
2847 949 2 0.527 22.025882276618297 26.163049672736342 38.56 
2848 950 1 -1.054 22.519999999999996 14.719999999999999 2.7600000000000002 
2849 950 2 0.527 23.105882276618296 15.476950327263662 2.7600000000000002 
2850 950 2 0.527 23.105882276618296 13.96304967273634 2.7600000000000002 
2851 951 1 -1.054 1.24 38.12 3.4799999999999995 
2852 951 2 0.527 1.825882276618295 38.87695032726366 3.4799999999999995 
2853 951 2 0.527 1.825882276618295 37.36304967273634 3.4799999999999995 
2854 952 1 -1.054 39.4 36.800000000000004 24.8 
2855 952 2 0.527 39.9858822766183 37.556950327263664 24.8 
2856 952 2 0.527 39.9858822766183 36.04304967273634 24.8 
2857 953 1 -1.054 25.84 10.36 27.040000000000003 
2858 953 2 0.527 26.425882276618296 11.116950327263663 27.040000000000003 
2859 953 2 0.527 26.425882276618296 9.60304967273634 27.040000000000003 
2860 954 1 -1.054 14.2 27.12 39.08 
2861 954 2 0.527 14.785882276618294 27.876950327263664 39.08 
2862 954 2 0.527 14.785882276618294 26.36304967273634 39.08 
2863 955 1 -1.054 31.840000000000003 30.48 6.5600000000000005 
2864 955 2 0.527 32.425882276618296 31.236950327263663 6.5600000000000005 
2865 955 2 0.527 32.425882276618296 29.723049672736337 6.5600000000000005 
2866 956 1 -1.054 26.200000000000003 24.759999999999998 27.480000000000004 
2867 956 2 0.527 26.7858822766183 25.51695032726366 27.480000000000004 
2868 956 2 0.527 26.7858822766183 24.00304967273634 27.480000000000004 
2869 957 1 -1.054 23.279999999999998 11.319999999999999 35.04 
2870 957 2 0.527 23.865882276618294 12.07695032726366 35.04 
2871 957 2 0.527 23.865882276618294 10.563049672736337 35.04 
2872 958 1 -1.054 31.32 5.48 13.520000000000001 
2873 958 2 0.527 31.9058822766183 6.236950327263662 13.520000000000001 
2874 958 2 0.527 31.9058822766183 4.723049672736339 13.520000000000001 
2875 959 1 -1.054 24.08 28.4 24.56 
2876 959 2 0.527 24.665882276618298 29.156950327263658 24.56 
2877 959 2 0.527 24.665882276618298 27.64304967273634 24.56 
2878 960 1 -1.054 24.64 26.720000000000002 6.4 
2879 960 2 0.527 25.225882276618297 27.476950327263662 6.4 
2880 960 2 0.527 25.225882276618297 25.96304967273634 6.4 
2881 961 1 -1.054 31.16 6.12 1.24 
2882 961 2 0.527 31.745882276618296 6.876950327263661 1.24 
2883 961 2 0.527 31.745882276618296 5.363049672736339 1.24 
2884 962 1 -1.054 13.440000000000001 37.28 36.160000000000004 
2885 962 2 0.527 14.025882276618296 38.03695032726366 36.160000000000004 
2886 962 2 0.527 14.025882276618296 36.52304967273634 36.160000000000004 
2887 963 1 -1.054 34.24 36.88 2.6 
2888 963 2 0.527 34.825882276618294 37.63695032726366 2.6 
2889 963 2 0.527 34.825882276618294 36.12304967273634 2.6 
2890 964 1 -1.054 17.88 38.839999999999996 13.200000000000001 
2891 964 2 0.527 18.465882276618295 39.59695032726366 13.200000000000001 
2892 964 2 0.527 18.465882276618295 38.08304967273634 13.200000000000001 
2893 965 1 -1.054 25.240000000000002 15.600000000000001 32.400000000000006 
2894 965 2 0.527 25.825882276618298 16.35695032726366 32.400000000000006 
2895 965 2 0.527 25.825882276618298 14.843049672736338 32.400000000000006 
2896 966 1 -1.054 9.8 31.12 24.92 
2897 966 2 0.527 10.385882276618295 31.876950327263664 24.92 
2898 966 2 0.527 10.385882276618295 30.363049672736338 24.92 
2899 967 1 -1.054 14.12 2.56 20.68 
2900 967 2 0.527 14.705882276618294 3.3169503272636613 20.68 
2901 967 2 0.527 14.705882276618294 1.8030496727363388 20.68 
2902 968 1 -1.054 13.879999999999999 18.16 29.32 
2903 968 2 0.527 14.465882276618293 18.916950327263663 29.32 
2904 968 2 0.527 14.465882276618293 17.40304967273634 29.32 
2905 969 1 -1.054 39.44 17.12 19.56 
2906 969 2 0.527 40.02588227661829 17.87695032726366 19.56 
2907 969 2 0.527 40.02588227661829 16.363049672736338 19.56 
2908 970 1 -1.054 1.2 6.720000000000001 32.599999999999994 
2909 970 2 0.527 1.785882276618295 7.476950327263662 32.599999999999994 
2910 970 2 0.527 1.785882276618295 5.963049672736339 32.599999999999994 
2911 971 1 -1.054 18.16 34.84 30.36 
2912 971 2 0.527 18.745882276618296 35.59695032726366 30.36 
2913 971 2 0.527 18.745882276618296 34.08304967273634 30.36 
2914 972 1 -1.054 32.400000000000006 33.4 8.72 
2915 972 2 0.527 32.9858822766183 34.15695032726366 8.72 
2916 972 2 0.527 32.9858822766183 32.64304967273634 8.72 
2917 973 1 -1.054 30.0 9.44 14.239999999999998 
2918 973 2 0.527 30.585882276618296 10.19695032726366 14.239999999999998 
2919 973 2 0.527 30.585882276618296 8.683049672736338 14.239999999999998 
2920 974 1 -1.054 4.28 33.6 19.68 
2921 974 2 0.527 4.8658822766182945 34.35695032726366 19.68 
2922 974 2 0.527 4.8658822766182945 32.843049672736335 19.68 
2923 975 1 -1.054 21.400000000000002 27.72 22.88 
2924 975 2 0.527 21.985882276618298 28.47695032726366 22.88 
2925 975 2 0.527 21.985882276618298 26.963049672736336 22.88 
2926 976 1 -1.054 8.8 30.76 4.48 
2927 976 2 0.527 9.385882276618295 31.51695032726366 4.48 
2928 976 2 0.527 9.385882276618295 30.00304967273634 4.48 
2929 977 1 -1.054 34.12 19.24 3.16 
2930 977 2 0.527 34.7058822766183 19.99695032726366 3.16 
2931 977 2 0.527 34.7058822766183 18.48304967273634 3.16 
2932 978 1 -1.054 24.88 26.68 37.0 
2933 978 2 0.527 25.465882276618295 27.436950327263663 37.0 
2934 978 2 0.527 25.465882276618295 25.92304967273634 37.0 
2935 979 1 -1.054 22.480000000000004 15.440000000000001 10.88 
2936 979 2 0.527 23.0658822766183 16.19695032726366 10.88 
2937 979 2 0.527 23.0658822766183 14.683049672736338 10.88 
2938 980 1 -1.054 6.2 31.96 1.8399999999999999 
2939 980 2 0.527 6.7858822766182945 32.71695032726366 1.8399999999999999 
2940 980 2 0.527 6.7858822766182945 31.20304967273634 1.8399999999999999 
2941 981 1 -1.054 38.36 7.199999999999999 30.84 
2942 981 2 0.527 38.94588227661829 7.956950327263661 30.84 
2943 981 2 0.527 38.94588227661829 6.443049672736338 30.84 
2944 982 1 -1.054 32.76 23.439999999999998 1.6400000000000001 
2945 982 2 0.527 33.3458822766183 24.19695032726366 1.6400000000000001 
2946 982 2 0.527 33.3458822766183 22.683049672736338 1.6400000000000001 
2947 983 1 -1.054 5.72 30.12 8.96 
2948 983 2 0.527 6.305882276618294 30.87695032726366 8.96 
2949 983 2 0.527 6.305882276618294 29.363049672736338 8.96 
2950 984 1 -1.054 13.84 9.879999999999999 16.919999999999998 
2951 984 2 0.527 14.425882276618294 10.636950327263662 16.919999999999998 
2952 984 2 0.527 14.425882276618294 9.12304967273634 16.919999999999998 
2953 985 1 -1.054 23.479999999999997 27.44 4.04 
2954 985 2 0.527 24.065882276618296 28.196950327263664 4.04 
2955 985 2 0.527 24.065882276618296 26.68304967273634 4.04 
2956 986 1 -1.054 2.72 35.92 7.640000000000001 
2957 986 2 0.527 3.305882276618295 36.67695032726366 7.640000000000001 
2958 986 2 0.527 3.305882276618295 35.16304967273634 7.640000000000001 
2959 987 1 -1.054 30.08 23.4 21.400000000000002 
2960 987 2 0.527 30.665882276618298 24.156950327263658 21.400000000000002 
2961 987 2 0.527 30.665882276618298 22.64304967273634 21.400000000000002 
2962 988 1 -1.054 6.959999999999999 24.08 27.759999999999998 
2963 988 2 0.527 7.545882276618294 24.83695032726366 27.759999999999998 
2964 988 2 0.527 7.545882276618294 23.32304967273634 27.759999999999998 
2965 989 1 -1.054 17.72 35.04 22.32 
2966 989 2 0.527 18.305882276618295 35.79695032726366 22.32 
2967 989 2 0.527 18.305882276618295 34.28304967273634 22.32 
2968 990 1 -1.054 38.36 16.84 15.0 
2969 990 2 0.527 38.94588227661829 17.59695032726366 15.0 
2970 990 2 0.527 38.94588227661829 16.083049672736337 15.0 
2971 991 1 -1.054 11.799999999999999 38.36 1.6800000000000002 
2972 991 2 0.527 12.385882276618293 39.11695032726366 1.6800000000000002 
2973 991 2 0.527 12.385882276618293 37.60304967273634 1.6800000000000002 
2974 992 1 -1.054 29.0 33.56 1.04 
2975 992 2 0.527 29.585882276618296 34.31695032726366 1.04 
2976 992 2 0.527 29.585882276618296 32.803049672736336 1.04 
2977 993 1 -1.054 23.0 27.919999999999998 20.4 
2978 993 2 0.527 23.585882276618296 28.67695032726366 20.4 
2979 993 2 0.527 23.585882276618296 27.163049672736335 20.4 
2980 994 1 -1.054 37.480000000000004 38.36 16.279999999999998 
2981 994 2 0.527 38.0658822766183 39.11695032726366 16.279999999999998 
2982 994 2 0.527 38.0658822766183 37.60304967273634 16.279999999999998 
2983 995 1 -1.054 3.92 38.96 20.2 
2984 995 2 0.527 4.505882276618295 39.71695032726366 20.2 
2985 995 2 0.527 4.505882276618295 38.20304967273634 20.2 
2986 996 1 -1.054 18.96 30.68 11.080000000000002 
2987 996 2 0.527 19.545882276618293 31.436950327263663 11.080000000000002 
2988 996 2 0.527 19.545882276618293 29.92304967273634 11.080000000000002 
2989 997 1 -1.054 1.04 17.8 27.88 
2990 997 2 0.527 1.6258822766182948 18.55695032726366 27.88 
2991 997 2 0.527 1.6258822766182948 17.043049672736338 27.88 
2992 998 1 -1.054 19.24 36.64 20.08 
2993 998 2 0.527 19.825882276618294 37.39695032726366 20.08 
2994 998 2 0.527 19.825882276618294 35.88304967273634 20.08 
2995 999 1 -1.054 10.88 5.28 35.4 
2996 999 2 0.527 11.465882276618295 6.0369503272636615 35.4 
2997 999 2 0.527 11.465882276618295 4.523049672736339 35.4 
2998 1000 1 -1.054 25.2 6.44 2.64 
2999 1000 2 0.527 25.785882276618295 7.196950327263662 2.64 
3000 1000 2 0.527 25.785882276618295 5.683049672736339 2.64 
3001 1001 1 -1.054 32.160000000000004 4.44 31.6 
3002 1001 2 0.527 32.745882276618296 5.196950327263661 31.6 
3003 1001 2 0.527 32.745882276618296 3.6830496727363387 31.6 
3004 1002 1 -1.054 22.799999999999997 12.52 31.6 
3005 1002 2 0.527 23.385882276618297 13.27695032726366 31.6 
3006 1002 2 0.527 23.385882276618297 11.763049672736338 31.6 
3007 1003 1 -1.054 37.68 7.24 37.92 
3008 1003 2 0.527 38.26588227661829 7.9969503272636615 37.92 
3009 1003 2 0.527 38.26588227661829 6.483049672736339 37.92 
3010 1004 1 -1.054 1.32 9.0 39.96 
3011 1004 2 0.527 1.905882276618295 9.756950327263661 39.96 
3012 1004 2 0.527 1.905882276618295 8.243049672736339 39.96 
3013 1005 1 -1.054 39.88 40.0 29.84 
3014 1005 2 0.527 40.465882276618295 40.75695032726366 29.84 
3015 1005 2 0.527 40.465882276618295 39.24304967273634 29.84 
3016 1006 1 -1.054 26.880000000000003 17.56 15.2 
3017 1006 2 0.527 27.4658822766183 18.316950327263662 15.2 
3018 1006 2 0.527 27.4658822766183 16.80304967273634 15.2 
3019 1007 1 -1.054 6.800000000000001 3.24 0.76 
3020 1007 2 0.527 7.385882276618295 3.9969503272636615 0.76 
3021 1007 2 0.527 7.385882276618295 2.483049672736339 0.76 
3022 1008 1 -1.054 32.0 39.4 38.839999999999996 
3023 1008 2 0.527 32.5858822766183 40.15695032726366 38.839999999999996 
3024 1008 2 0.527 32.5858822766183 38.64304967273634 38.839999999999996 
3025 1009 1 -1.054 8.64 34.96 26.64 
3026 1009 2 0.527 9.225882276618295 35.71695032726366 26.64 
3027 1009 2 0.527 9.225882276618295 34.20304967273634 26.64 
3028 1010 1 -1.054 20.48 14.32 17.8 
3029 1010 2 0.527 21.065882276618296 15.07695032726366 17.8 
3030 1010 2 0.527 21.065882276618296 13.563049672736337 17.8 
3031 1011 1 -1.054 25.68 9.48 36.84 
3032 1011 2 0.527 26.2658822766183 10.23695032726366 36.84 
3033 1011 2 0.527 26.2658822766183 8.723049672736337 36.84 
3034 1012 1 -1.054 14.12 0.8 29.28 
3035 1012 2 0.527 14.705882276618294 1.5569503272636611 29.28 
3036 1012 2 0.527 14.705882276618294 0.04304967273633886 29.28 
3037 1013 1 -1.054 0.8 13.280000000000001 20.96 
3038 1013 2 0.527 1.385882276618295 14.036950327263662 20.96 
3039 1013 2 0.527 1.385882276618295 12.52304967273634 20.96 
3040 1014 1 -1.054 12.96 23.88 18.64 
3041 1014 2 0.527 13.545882276618295 24.636950327263662 18.64 
3042 1014 2 0.527 13.545882276618295 23.123049672736336 18.64 
3043 1015 1 -1.054 6.2 29.24 32.96 
3044 1015 2 0.527 6.7858822766182945 29.99695032726366 32.96 
3045 1015 2 0.527 6.7858822766182945 28.48304967273634 32.96 
3046 1016 1 -1.054 18.64 34.72 10.48 
3047 1016 2 0.527 19.225882276618297 35.47695032726366 10.48 
3048 1016 2 0.527 19.225882276618297 33.96304967273634 10.48 
3049 1017 1 -1.054 29.4 23.24 16.080000000000002 
3050 1017 2 0.527 29.985882276618298 23.99695032726366 16.080000000000002 
3051 1017 2 0.527 29.985882276618298 22.483049672736335 16.080000000000002 
3052 1018 1 -1.054 17.4 27.200000000000003 38.16 
3053 1018 2 0.527 17.985882276618295 27.956950327263662 38.16 
3054 1018 2 0.527 17.985882276618295 26.44304967273634 38.16 
3055 1019 1 -1.054 18.16 32.28 28.479999999999997 
3056 1019 2 0.527 18.745882276618296 33.03695032726366 28.479999999999997 
3057 1019 2 0.527 18.745882276618296 31.52304967273634 28.479999999999997 
3058 1020 1 -1.054 18.16 39.6 2.56 
3059 1020 2 0.527 18.745882276618296 40.35695032726366 2.56 
3060 1020 2 0.527 18.745882276618296 38.84304967273634 2.56 
3061 1021 1 -1.054 10.2 7.84 26.48 
3062 1021 2 0.527 10.785882276618295 8.596950327263661 26.48 
3063 1021 2 0.527 10.785882276618295 7.083049672736339 26.48 
3064 1022 1 -1.054 0.72 22.32 12.24 
3065 1022 2 0.527 1.305882276618295 23.076950327263663 12.24 
3066 1022 2 0.527 1.305882276618295 21.56304967273634 12.24 
3067 1023 1 -1.054 21.16 35.36 37.599999999999994 
3068 1023 2 0.527 21.745882276618296 36.11695032726366 37.599999999999994 
3069 1023 2 0.527 21.745882276618296 34.60304967273634 37.599999999999994 
3070 1024 1 -1.054 2.0 33.48 39.48 
3071 1024 2 0.527 2.5858822766182947 34.236950327263656 39.48 
3072 1024 2 0.527 2.5858822766182947 32.72304967273634 39.48 
3073 1025 1 -1.054 1.1600000000000001 29.84 21.16 
3074 1025 2 0.527 1.7458822766182949 30.596950327263663 21.16 
3075 1025 2 0.527 1.7458822766182949 29.083049672736337 21.16 
3076 1026 1 -1.054 29.32 0.96 37.76 
3077 1026 2 0.527 29.905882276618296 1.716950327263661 37.76 
3078 1026 2 0.527 29.905882276618296 0.20304967273633887 37.76 
3079 1027 1 -1.054 4.72 33.08 35.64 
3080 1027 2 0.527 5.305882276618295 33.83695032726366 35.64 
3081 1027 2 0.527 5.305882276618295 32.32304967273634 35.64 
3082 1028 1 -1.054 3.4399999999999995 38.04 38.239999999999995 
3083 1028 2 0.527 4.025882276618295 38.79695032726366 38.239999999999995 
3084 1028 2 0.527 4.025882276618295 37.28304967273634 38.239999999999995 
3085 1029 1 -1.054 26.68 1.7999999999999998 13.959999999999999 
3086 1029 2 0.527 27.2658822766183 2.556950327263661 13.959999999999999 
3087 1029 2 0.527 27.2658822766183 1.0430496727363388 13.959999999999999 
3088 1030 1 -1.054 7.0 16.080000000000002 13.24 
3089 1030 2 0.527 7.585882276618294 16.83695032726366 13.24 
3090 1030 2 0.527 7.585882276618294 15.323049672736339 13.24 
3091 1031 1 -1.054 13.84 21.16 21.080000000000002 
3092 1031 2 0.527 14.425882276618294 21.916950327263663 21.080000000000002 
3093 1031 2 0.527 14.425882276618294 20.40304967273634 21.080000000000002 
3094 1032 1 -1.054 12.96 25.240000000000002 8.44 
3095 1032 2 0.527 13.545882276618295 25.99695032726366 8.44 
3096 1032 2 0.527 13.545882276618295 24.48304967273634 8.44 
3097 1033 1 -1.054 18.16 38.32 26.76 
3098 1033 2 0.527 18.745882276618296 39.07695032726366 26.76 
3099 1033 2 0.527 18.745882276618296 37.56304967273634 26.76 
3100 1034 1 -1.054 7.720000000000001 13.72 35.72 
3101 1034 2 0.527 8.305882276618295 14.476950327263662 35.72 
3102 1034 2 0.527 8.305882276618295 12.96304967273634 35.72 
3103 1035 1 -1.054 27.919999999999998 22.480000000000004 37.28 
3104 1035 2 0.527 28.505882276618294 23.236950327263663 37.28 
3105 1035 2 0.527 28.505882276618294 21.72304967273634 37.28 
3106 1036 1 -1.054 38.4 9.44 36.0 
3107 1036 2 0.527 38.9858822766183 10.19695032726366 36.0 
3108 1036 2 0.527 38.9858822766183 8.683049672736338 36.0 
3109 1037 1 -1.054 17.08 33.8 20.12 
3110 1037 2 0.527 17.665882276618294 34.556950327263664 20.12 
3111 1037 2 0.527 17.665882276618294 33.04304967273634 20.12 
3112 1038 1 -1.054 6.5200000000000005 11.36 26.28 
3113 1038 2 0.527 7.105882276618295 12.11695032726366 26.28 
3114 1038 2 0.527 7.105882276618295 10.603049672736338 26.28 
3115 1039 1 -1.054 28.159999999999997 7.48 6.04 
3116 1039 2 0.527 28.745882276618296 8.236950327263662 6.04 
3117 1039 2 0.527 28.745882276618296 6.723049672736339 6.04 
3118 1040 1 -1.054 29.92 35.84 33.519999999999996 
3119 1040 2 0.527 30.505882276618298 36.59695032726366 33.519999999999996 
3120 1040 2 0.527 30.505882276618298 35.08304967273634 33.519999999999996 
3121 1041 1 -1.054 24.28 11.200000000000001 16.12 
3122 1041 2 0.527 24.865882276618297 11.956950327263662 16.12 
3123 1041 2 0.527 24.865882276618297 10.44304967273634 16.12 
3124 1042 1 -1.054 25.08 30.48 37.76 
3125 1042 2 0.527 25.665882276618298 31.236950327263663 37.76 
3126 1042 2 0.527 25.665882276618298 29.723049672736337 37.76 
3127 1043 1 -1.054 29.24 1.32 22.68 
3128 1043 2 0.527 29.825882276618294 2.0769503272636616 22.68 
3129 1043 2 0.527 29.825882276618294 0.5630496727363389 22.68 
3130 1044 1 -1.054 26.560000000000002 20.240000000000002 11.76 
3131 1044 2 0.527 27.1458822766183 20.99695032726366 11.76 
3132 1044 2 0.527 27.1458822766183 19.48304967273634 11.76 
3133 1045 1 -1.054 23.119999999999997 2.7600000000000002 35.32 
3134 1045 2 0.527 23.705882276618297 3.5169503272636615 35.32 
3135 1045 2 0.527 23.705882276618297 2.003049672736339 35.32 
3136 1046 1 -1.054 37.76 5.64 15.48 
3137 1046 2 0.527 38.3458822766183 6.396950327263661 15.48 
3138 1046 2 0.527 38.3458822766183 4.883049672736338 15.48 
3139 1047 1 -1.054 2.64 10.280000000000001 2.24 
3140 1047 2 0.527 3.225882276618295 11.03695032726366 2.24 
3141 1047 2 0.527 3.225882276618295 9.523049672736338 2.24 
3142 1048 1 -1.054 24.68 26.840000000000003 13.759999999999998 
3143 1048 2 0.527 25.265882276618296 27.596950327263663 13.759999999999998 
3144 1048 2 0.527 25.265882276618296 26.08304967273634 13.759999999999998 
3145 1049 1 -1.054 16.88 21.68 35.52 
3146 1049 2 0.527 17.465882276618295 22.436950327263663 35.52 
3147 1049 2 0.527 17.465882276618295 20.92304967273634 35.52 
3148 1050 1 -1.054 19.64 19.16 22.599999999999998 
3149 1050 2 0.527 20.225882276618297 19.91695032726366 22.599999999999998 
3150 1050 2 0.527 20.225882276618297 18.403049672736337 22.599999999999998 
3151 1051 1 -1.054 26.64 19.72 9.0 
3152 1051 2 0.527 27.2258822766183 20.476950327263662 9.0 
3153 1051 2 0.527 27.2258822766183 18.96304967273634 9.0 
3154 1052 1 -1.054 32.36 38.76 11.479999999999999 
3155 1052 2 0.527 32.9458822766183 39.51695032726366 11.479999999999999 
3156 1052 2 0.527 32.9458822766183 38.00304967273634 11.479999999999999 
3157 1053 1 -1.054 11.120000000000001 18.32 30.68 
3158 1053 2 0.527 11.705882276618295 19.076950327263663 30.68 
3159 1053 2 0.527 11.705882276618295 17.56304967273634 30.68 
3160 1054 1 -1.054 6.4 23.119999999999997 30.4 
3161 1054 2 0.527 6.985882276618295 23.87695032726366 30.4 
3162 1054 2 0.527 6.985882276618295 22.363049672736338 30.4 
3163 1055 1 -1.054 10.120000000000001 18.240000000000002 15.52 
3164 1055 2 0.527 10.705882276618295 18.99695032726366 15.52 
3165 1055 2 0.527 10.705882276618295 17.48304967273634 15.52 
3166 1056 1 -1.054 13.680000000000001 1.2 31.96 
3167 1056 2 0.527 14.265882276618296 1.9569503272636612 31.96 
3168 1056 2 0.527 14.265882276618296 0.4430496727363388 31.96 
3169 1057 1 -1.054 12.76 7.92 3.5199999999999996 
3170 1057 2 0.527 13.345882276618294 8.676950327263661 3.5199999999999996 
3171 1057 2 0.527 13.345882276618294 7.163049672736339 3.5199999999999996 
3172 1058 1 -1.054 27.68 13.799999999999999 0.52 
3173 1058 2 0.527 28.265882276618296 14.55695032726366 0.52 
3174 1058 2 0.527 28.265882276618296 13.043049672736338 0.52 
3175 1059 1 -1.054 30.6 10.72 9.120000000000001 
3176 1059 2 0.527 31.185882276618297 11.476950327263662 9.120000000000001 
3177 1059 2 0.527 31.185882276618297 9.96304967273634 9.120000000000001 
3178 1060 1 -1.054 33.239999999999995 35.4 13.24 
3179 1060 2 0.527 33.825882276618294 36.15695032726366 13.24 
3180 1060 2 0.527 33.825882276618294 34.64304967273634 13.24 
3181 1061 1 -1.054 33.28 24.0 5.76 
3182 1061 2 0.527 33.865882276618294 24.75695032726366 5.76 
3183 1061 2 0.527 33.865882276618294 23.243049672736337 5.76 
3184 1062 1 -1.054 0.4 7.880000000000001 14.879999999999999 
3185 1062 2 0.527 0.985882276618295 8.636950327263662 14.879999999999999 
3186 1062 2 0.527 0.985882276618295 7.1230496727363395 14.879999999999999 
3187 1063 1 -1.054 18.16 2.2800000000000002 28.919999999999998 
3188 1063 2 0.527 18.745882276618296 3.036950327263661 28.919999999999998 
3189 1063 2 0.527 18.745882276618296 1.523049672736339 28.919999999999998 
3190 1064 1 -1.054 21.200000000000003 15.08 8.16 
3191 1064 2 0.527 21.7858822766183 15.836950327263661 8.16 
3192 1064 2 0.527 21.7858822766183 14.323049672736339 8.16 
3193 1065 1 -1.054 16.4 39.2 22.200000000000003 
3194 1065 2 0.527 16.985882276618295 39.95695032726366 22.200000000000003 
3195 1065 2 0.527 16.985882276618295 38.443049672736336 22.200000000000003 
3196 1066 1 -1.054 18.2 19.36 0.6 
3197 1066 2 0.527 18.785882276618295 20.11695032726366 0.6 
3198 1066 2 0.527 18.785882276618295 18.60304967273634 0.6 
3199 1067 1 -1.054 38.879999999999995 3.5199999999999996 26.32 
3200 1067 2 0.527 39.465882276618295 4.276950327263661 26.32 
3201 1067 2 0.527 39.465882276618295 2.7630496727363383 26.32 
3202 1068 1 -1.054 36.84 12.88 39.24 
3203 1068 2 0.527 37.425882276618296 13.636950327263662 39.24 
3204 1068 2 0.527 37.425882276618296 12.12304967273634 39.24 
3205 1069 1 -1.054 26.28 15.16 13.759999999999998 
3206 1069 2 0.527 26.865882276618297 15.916950327263661 13.759999999999998 
3207 1069 2 0.527 26.865882276618297 14.403049672736339 13.759999999999998 
3208 1070 1 -1.054 3.2 14.64 4.24 
3209 1070 2 0.527 3.785882276618295 15.39695032726366 4.24 
3210 1070 2 0.527 3.785882276618295 13.883049672736337 4.24 
3211 1071 1 -1.054 4.680000000000001 37.440000000000005 25.560000000000002 
3212 1071 2 0.527 5.265882276618296 38.196950327263664 25.560000000000002 
3213 1071 2 0.527 5.265882276618296 36.68304967273634 25.560000000000002 
3214 1072 1 -1.054 24.6 20.36 35.72 
3215 1072 2 0.527 25.185882276618297 21.116950327263663 35.72 
3216 1072 2 0.527 25.185882276618297 19.60304967273634 35.72 
3217 1073 1 -1.054 27.480000000000004 24.88 30.72 
3218 1073 2 0.527 28.0658822766183 25.636950327263662 30.72 
3219 1073 2 0.527 28.0658822766183 24.12304967273634 30.72 
3220 1074 1 -1.054 18.28 9.399999999999999 21.880000000000003 
3221 1074 2 0.527 18.865882276618294 10.156950327263662 21.880000000000003 
3222 1074 2 0.527 18.865882276618294 8.643049672736339 21.880000000000003 
3223 1075 1 -1.054 7.92 15.64 20.8 
3224 1075 2 0.527 8.505882276618294 16.39695032726366 20.8 
3225 1075 2 0.527 8.505882276618294 14.88304967273634 20.8 
3226 1076 1 -1.054 39.76 18.720000000000002 38.16 
3227 1076 2 0.527 40.34588227661829 19.476950327263662 38.16 
3228 1076 2 0.527 40.34588227661829 17.96304967273634 38.16 
3229 1077 1 -1.054 35.16 34.08 7.359999999999999 
3230 1077 2 0.527 35.745882276618296 34.83695032726366 7.359999999999999 
3231 1077 2 0.527 35.745882276618296 33.32304967273634 7.359999999999999 
3232 1078 1 -1.054 3.4000000000000004 17.6 25.68 
3233 1078 2 0.527 3.985882276618295 18.35695032726366 25.68 
3234 1078 2 0.527 3.985882276618295 16.84304967273634 25.68 
3235 1079 1 -1.054 5.76 23.159999999999997 22.56 
3236 1079 2 0.527 6.345882276618294 23.91695032726366 22.56 
3237 1079 2 0.527 6.345882276618294 22.403049672736337 22.56 
3238 1080 1 -1.054 24.04 32.96 15.96 
3239 1080 2 0.527 24.625882276618295 33.71695032726366 15.96 
3240 1080 2 0.527 24.625882276618295 32.203049672736334 15.96 
3241 1081 1 -1.054 9.360000000000001 34.96 6.5600000000000005 
3242 1081 2 0.527 9.945882276618295 35.71695032726366 6.5600000000000005 
3243 1081 2 0.527 9.945882276618295 34.20304967273634 6.5600000000000005 
3244 1082 1 -1.054 39.96 27.040000000000003 18.16 
3245 1082 2 0.527 40.5458822766183 27.796950327263662 18.16 
3246 1082 2 0.527 40.5458822766183 26.28304967273634 18.16 
3247 1083 1 -1.054 33.04 28.56 4.44 
3248 1083 2 0.527 33.6258822766183 29.316950327263662 4.44 
3249 1083 2 0.527 33.6258822766183 27.803049672736336 4.44 
3250 1084 1 -1.054 30.08 2.04 8.2 
3251 1084 2 0.527 30.665882276618298 2.796950327263661 8.2 
3252 1084 2 0.527 30.665882276618298 1.2830496727363387 8.2 
3253 1085 1 -1.054 34.4 0.04 4.4 
3254 1085 2 0.527 34.9858822766183 0.7969503272636612 4.4 
3255 1085 2 0.527 34.9858822766183 -0.7169503272636611 4.4 
3256 1086 1 -1.054 2.12 12.48 25.92 
3257 1086 2 0.527 2.705882276618295 13.236950327263662 25.92 
3258 1086 2 0.527 2.705882276618295 11.72304967273634 25.92 
3259 1087 1 -1.054 12.76 4.36 32.04 
3260 1087 2 0.527 13.345882276618294 5.116950327263661 32.04 
3261 1087 2 0.527 13.345882276618294 3.6030496727363386 32.04 
3262 1088 1 -1.054 22.480000000000004 21.64 33.56 
3263 1088 2 0.527 23.0658822766183 22.396950327263664 33.56 
3264 1088 2 0.527 23.0658822766183 20.88304967273634 33.56 
3265 1089 1 -1.054 12.28 19.04 22.360000000000003 
3266 1089 2 0.527 12.865882276618294 19.79695032726366 22.360000000000003 
3267 1089 2 0.527 12.865882276618294 18.28304967273634 22.360000000000003 
3268 1090 1 -1.054 7.199999999999999 28.24 4.28 
3269 1090 2 0.527 7.7858822766182945 28.99695032726366 4.28 
3270 1090 2 0.527 7.7858822766182945 27.483049672736335 4.28 
3271 1091 1 -1.054 23.84 24.2 27.599999999999998 
3272 1091 2 0.527 24.425882276618296 24.956950327263662 27.599999999999998 
3273 1091 2 0.527 24.425882276618296 23.443049672736336 27.599999999999998 
3274 1092 1 -1.054 27.240000000000002 25.2 38.519999999999996 
3275 1092 2 0.527 27.825882276618298 25.956950327263662 38.519999999999996 
3276 1092 2 0.527 27.825882276618298 24.44304967273634 38.519999999999996 
3277 1093 1 -1.054 24.28 33.6 6.6000000000000005 
3278 1093 2 0.527 24.865882276618297 34.35695032726366 6.6000000000000005 
3279 1093 2 0.527 24.865882276618297 32.843049672736335 6.6000000000000005 
3280 1094 1 -1.054 14.44 6.0 12.96 
3281 1094 2 0.527 15.025882276618294 6.756950327263661 12.96 
3282 1094 2 0.527 15.025882276618294 5.243049672736339 12.96 
3283 1095 1 -1.054 6.800000000000001 18.32 23.68 
3284 1095 2 0.527 7.385882276618295 19.076950327263663 23.68 
3285 1095 2 0.527 7.385882276618295 17.56304967273634 23.68 
3286 1096 1 -1.054 10.4 33.36 10.96 
3287 1096 2 0.527 10.985882276618295 34.11695032726366 10.96 
3288 1096 2 0.527 10.985882276618295 32.60304967273634 10.96 
3289 1097 1 -1.054 34.28 23.24 28.52 
3290 1097 2 0.527 34.865882276618294 23.99695032726366 28.52 
3291 1097 2 0.527 34.865882276618294 22.483049672736335 28.52 
3292 1098 1 -1.054 4.680000000000001 8.32 8.32 
3293 1098 2 0.527 5.265882276618296 9.076950327263662 8.32 
3294 1098 2 0.527 5.265882276618296 7.563049672736338 8.32 
3295 1099 1 -1.054 4.48 20.36 21.6 
3296 1099 2 0.527 5.065882276618296 21.116950327263663 21.6 
3297 1099 2 0.527 5.065882276618296 19.60304967273634 21.6 
3298 1100 1 -1.054 16.16 4.32 33.879999999999995 
3299 1100 2 0.527 16.745882276618296 5.076950327263661 33.879999999999995 
3300 1100 2 0.527 16.745882276618296 3.5630496727363385 33.879999999999995 
3301 1101 1 -1.054 32.32 0.52 23.799999999999997 
3302 1101 2 0.527 32.9058822766183 1.2769503272636613 23.799999999999997 
3303 1101 2 0.527 32.9058822766183 -0.23695032726366116 23.799999999999997 
3304 1102 1 -1.054 10.760000000000002 23.4 12.96 
3305 1102 2 0.527 11.345882276618296 24.156950327263658 12.96 
3306 1102 2 0.527 11.345882276618296 22.64304967273634 12.96 
3307 1103 1 -1.054 14.44 37.28 30.76 
3308 1103 2 0.527 15.025882276618294 38.03695032726366 30.76 
3309 1103 2 0.527 15.025882276618294 36.52304967273634 30.76 
3310 1104 1 -1.054 14.399999999999999 8.76 33.44 
3311 1104 2 0.527 14.985882276618295 9.516950327263661 33.44 
3312 1104 2 0.527 14.985882276618295 8.003049672736338 33.44 
3313 1105 1 -1.054 12.4 29.04 2.16 
3314 1105 2 0.527 12.985882276618295 29.79695032726366 2.16 
3315 1105 2 0.527 12.985882276618295 28.28304967273634 2.16 
3316 1106 1 -1.054 1.92 4.640000000000001 14.559999999999999 
3317 1106 2 0.527 2.5058822766182947 5.396950327263661 14.559999999999999 
3318 1106 2 0.527 2.5058822766182947 3.883049672736339 14.559999999999999 
3319 1107 1 -1.054 37.04 6.6000000000000005 13.16 
3320 1107 2 0.527 37.6258822766183 7.356950327263662 13.16 
3321 1107 2 0.527 37.6258822766183 5.843049672736339 13.16 
3322 1108 1 -1.054 30.36 24.48 6.6000000000000005 
3323 1108 2 0.527 30.9458822766183 25.23695032726366 6.6000000000000005 
3324 1108 2 0.527 30.9458822766183 23.723049672736337 6.6000000000000005 
3325 1109 1 -1.054 31.36 10.280000000000001 30.76 
3326 1109 2 0.527 31.9458822766183 11.03695032726366 30.76 
3327 1109 2 0.527 31.9458822766183 9.523049672736338 30.76 
3328 1110 1 -1.054 32.440000000000005 21.8 4.36 
3329 1110 2 0.527 33.0258822766183 22.556950327263664 4.36 
3330 1110 2 0.527 33.0258822766183 21.04304967273634 4.36 
3331 1111 1 -1.054 29.72 38.56 39.72 
3332 1111 2 0.527 30.3058822766183 39.31695032726366 39.72 
3333 1111 2 0.527 30.3058822766183 37.803049672736336 39.72 
3334 1112 1 -1.054 15.52 11.240000000000002 4.92 
3335 1112 2 0.527 16.105882276618296 11.996950327263662 4.92 
3336 1112 2 0.527 16.105882276618296 10.483049672736339 4.92 
3337 1113 1 -1.054 37.400000000000006 39.6 11.6 
3338 1113 2 0.527 37.9858822766183 40.35695032726366 11.6 
3339 1113 2 0.527 37.9858822766183 38.84304967273634 11.6 
3340 1114 1 -1.054 12.04 30.4 4.76 
3341 1114 2 0.527 12.625882276618295 31.15695032726366 4.76 
3342 1114 2 0.527 12.625882276618295 29.64304967273634 4.76 
3343 1115 1 -1.054 29.84 2.2800000000000002 28.2 
3344 1115 2 0.527 30.425882276618296 3.036950327263661 28.2 
3345 1115 2 0.527 30.425882276618296 1.523049672736339 28.2 
3346 1116 1 -1.054 37.08 29.84 25.240000000000002 
3347 1116 2 0.527 37.6658822766183 30.596950327263663 25.240000000000002 
3348 1116 2 0.527 37.6658822766183 29.083049672736337 25.240000000000002 
3349 1117 1 -1.054 26.200000000000003 12.2 9.92 
3350 1117 2 0.527 26.7858822766183 12.95695032726366 9.92 
3351 1117 2 0.527 26.7858822766183 11.443049672736338 9.92 
3352 1118 1 -1.054 9.52 27.080000000000002 2.6 
3353 1118 2 0.527 10.105882276618294 27.836950327263665 2.6 
3354 1118 2 0.527 10.105882276618294 26.32304967273634 2.6 
3355 1119 1 -1.054 8.16 3.6799999999999997 23.2 
3356 1119 2 0.527 8.745882276618294 4.436950327263661 23.2 
3357 1119 2 0.527 8.745882276618294 2.9230496727363384 23.2 
3358 1120 1 -1.054 38.96 17.12 29.2 
3359 1120 2 0.527 39.54588227661829 17.87695032726366 29.2 
3360 1120 2 0.527 39.54588227661829 16.363049672736338 29.2 
3361 1121 1 -1.054 32.160000000000004 37.08 18.720000000000002 
3362 1121 2 0.527 32.745882276618296 37.836950327263665 18.720000000000002 
3363 1121 2 0.527 32.745882276618296 36.32304967273634 18.720000000000002 
3364 1122 1 -1.054 37.04 31.720000000000002 22.799999999999997 
3365 1122 2 0.527 37.6258822766183 32.476950327263665 22.799999999999997 
3366 1122 2 0.527 37.6258822766183 30.96304967273634 22.799999999999997 
3367 1123 1 -1.054 4.28 35.08 9.84 
3368 1123 2 0.527 4.8658822766182945 35.836950327263665 9.84 
3369 1123 2 0.527 4.8658822766182945 34.32304967273634 9.84 
3370 1124 1 -1.054 35.96 7.16 21.76 
3371 1124 2 0.527 36.5458822766183 7.916950327263661 21.76 
3372 1124 2 0.527 36.5458822766183 6.403049672736339 21.76 
3373 1125 1 -1.054 9.76 14.879999999999999 27.759999999999998 
3374 1125 2 0.527 10.345882276618294 15.636950327263662 27.759999999999998 
3375 1125 2 0.527 10.345882276618294 14.12304967273634 27.759999999999998 
3376 1126 1 -1.054 14.96 14.12 35.92 
3377 1126 2 0.527 15.545882276618295 14.87695032726366 35.92 
3378 1126 2 0.527 15.545882276618295 13.363049672736338 35.92 
3379 1127 1 -1.054 23.52 12.08 26.92 
3380 1127 2 0.527 24.105882276618296 12.836950327263661 26.92 
3381 1127 2 0.527 24.105882276618296 11.323049672736339 26.92 
3382 1128 1 -1.054 10.16 24.16 30.560000000000002 
3383 1128 2 0.527 10.745882276618294 24.91695032726366 30.560000000000002 
3384 1128 2 0.527 10.745882276618294 23.403049672736337 30.560000000000002 
3385 1129 1 -1.054 3.4000000000000004 20.64 37.76 
3386 1129 2 0.527 3.985882276618295 21.39695032726366 37.76 
3387 1129 2 0.527 3.985882276618295 19.88304967273634 37.76 
3388 1130 1 -1.054 29.64 28.799999999999997 5.16 
3389 1130 2 0.527 30.225882276618297 29.55695032726366 5.16 
3390 1130 2 0.527 30.225882276618297 28.043049672736338 5.16 
3391 1131 1 -1.054 22.0 15.600000000000001 37.559999999999995 
3392 1131 2 0.527 22.5858822766183 16.35695032726366 37.559999999999995 
3393 1131 2 0.527 22.5858822766183 14.843049672736338 37.559999999999995 
3394 1132 1 -1.054 3.3200000000000003 16.759999999999998 31.16 
3395 1132 2 0.527 3.905882276618295 17.51695032726366 31.16 
3396 1132 2 0.527 3.905882276618295 16.00304967273634 31.16 
3397 1133 1 -1.054 36.24 16.36 33.0 
3398 1133 2 0.527 36.8258822766183 17.11695032726366 33.0 
3399 1133 2 0.527 36.8258822766183 15.603049672736338 33.0 
3400 1134 1 -1.054 34.76 24.759999999999998 33.04 
3401 1134 2 0.527 35.3458822766183 25.51695032726366 33.04 
3402 1134 2 0.527 35.3458822766183 24.00304967273634 33.04 
3403 1135 1 -1.054 27.919999999999998 35.92 11.479999999999999 
3404 1135 2 0.527 28.505882276618294 36.67695032726366 11.479999999999999 
3405 1135 2 0.527 28.505882276618294 35.16304967273634 11.479999999999999 
3406 1136 1 -1.054 23.24 13.879999999999999 24.68 
3407 1136 2 0.527 23.825882276618294 14.63695032726366 24.68 
3408 1136 2 0.527 23.825882276618294 13.123049672736338 24.68 
3409 1137 1 -1.054 9.879999999999999 18.2 5.08 
3410 1137 2 0.527 10.465882276618295 18.956950327263662 5.08 
3411 1137 2 0.527 10.465882276618295 17.44304967273634 5.08 
3412 1138 1 -1.054 26.240000000000002 29.2 30.0 
3413 1138 2 0.527 26.825882276618298 29.956950327263662 30.0 
3414 1138 2 0.527 26.825882276618298 28.443049672736336 30.0 
3415 1139 1 -1.054 19.48 6.28 33.8 
3416 1139 2 0.527 20.065882276618296 7.0369503272636615 33.8 
3417 1139 2 0.527 20.065882276618296 5.523049672736339 33.8 
3418 1140 1 -1.054 0.24 6.24 17.4 
3419 1140 2 0.527 0.8258822766182949 6.9969503272636615 17.4 
3420 1140 2 0.527 0.8258822766182949 5.483049672736339 17.4 
3421 1141 1 -1.054 25.8 36.0 27.400000000000002 
3422 1141 2 0.527 26.385882276618297 36.75695032726366 27.400000000000002 
3423 1141 2 0.527 26.385882276618297 35.24304967273634 27.400000000000002 
3424 1142 1 -1.054 12.32 24.88 26.96 
3425 1142 2 0.527 12.905882276618295 25.636950327263662 26.96 
3426 1142 2 0.527 12.905882276618295 24.12304967273634 26.96 
3427 1143 1 -1.054 5.88 38.879999999999995 31.720000000000002 
3428 1143 2 0.527 6.465882276618294 39.63695032726366 31.720000000000002 
3429 1143 2 0.527 6.465882276618294 38.123049672736336 31.720000000000002 
3430 1144 1 -1.054 27.12 18.44 20.44 
3431 1144 2 0.527 27.705882276618297 19.19695032726366 20.44 
3432 1144 2 0.527 27.705882276618297 17.683049672736338 20.44 
3433 1145 1 -1.054 8.48 33.76 12.72 
3434 1145 2 0.527 9.065882276618295 34.51695032726366 12.72 
3435 1145 2 0.527 9.065882276618295 33.00304967273634 12.72 
3436 1146 1 -1.054 13.84 39.96 22.519999999999996 
3437 1146 2 0.527 14.425882276618294 40.71695032726366 22.519999999999996 
3438 1146 2 0.527 14.425882276618294 39.20304967273634 22.519999999999996 
3439 1147 1 -1.054 24.8 7.48 27.959999999999997 
3440 1147 2 0.527 25.385882276618297 8.236950327263662 27.959999999999997 
3441 1147 2 0.527 25.385882276618297 6.723049672736339 27.959999999999997 
3442 1148 1 -1.054 1.52 8.040000000000001 26.16 
3443 1148 2 0.527 2.1058822766182947 8.796950327263662 26.16 
3444 1148 2 0.527 2.1058822766182947 7.28304967273634 26.16 
3445 1149 1 -1.054 30.2 29.8 27.480000000000004 
3446 1149 2 0.527 30.785882276618295 30.55695032726366 27.480000000000004 
3447 1149 2 0.527 30.785882276618295 29.043049672736338 27.480000000000004 
3448 1150 1 -1.054 6.32 26.080000000000002 2.08 
3449 1150 2 0.527 6.905882276618295 26.83695032726366 2.08 
3450 1150 2 0.527 6.905882276618295 25.32304967273634 2.08 
3451 1151 1 -1.054 12.12 2.92 14.64 
3452 1151 2 0.527 12.705882276618294 3.6769503272636612 14.64 
3453 1151 2 0.527 12.705882276618294 2.1630496727363386 14.64 
3454 1152 1 -1.054 21.520000000000003 32.120000000000005 27.44 
3455 1152 2 0.527 22.1058822766183 32.876950327263664 27.44 
3456 1152 2 0.527 22.1058822766183 31.36304967273634 27.44 
3457 1153 1 -1.054 22.360000000000003 17.44 39.84 
3458 1153 2 0.527 22.9458822766183 18.19695032726366 39.84 
3459 1153 2 0.527 22.9458822766183 16.683049672736338 39.84 
3460 1154 1 -1.054 22.400000000000002 19.36 20.72 
3461 1154 2 0.527 22.985882276618298 20.11695032726366 20.72 
3462 1154 2 0.527 22.985882276618298 18.60304967273634 20.72 
3463 1155 1 -1.054 38.64 15.2 6.800000000000001 
3464 1155 2 0.527 39.22588227661829 15.956950327263662 6.800000000000001 
3465 1155 2 0.527 39.22588227661829 14.44304967273634 6.800000000000001 
3466 1156 1 -1.054 0.52 14.32 10.920000000000002 
3467 1156 2 0.527 1.105882276618295 15.07695032726366 10.920000000000002 
3468 1156 2 0.527 1.105882276618295 13.563049672736337 10.920000000000002 
3469 1157 1 -1.054 22.519999999999996 32.28 9.280000000000001 
3470 1157 2 0.527 23.105882276618296 33.03695032726366 9.280000000000001 
3471 1157 2 0.527 23.105882276618296 31.52304967273634 9.280000000000001 
3472 1158 1 -1.054 17.68 9.44 25.2 
3473 1158 2 0.527 18.265882276618296 10.19695032726366 25.2 
3474 1158 2 0.527 18.265882276618296 8.683049672736338 25.2 
3475 1159 1 -1.054 34.32 15.36 6.959999999999999 
3476 1159 2 0.527 34.9058822766183 16.116950327263663 6.959999999999999 
3477 1159 2 0.527 34.9058822766183 14.60304967273634 6.959999999999999 
3478 1160 1 -1.054 1.28 17.52 16.16 
3479 1160 2 0.527 1.865882276618295 18.276950327263663 16.16 
3480 1160 2 0.527 1.865882276618295 16.76304967273634 16.16 
3481 1161 1 -1.054 36.88 33.04 35.480000000000004 
3482 1161 2 0.527 37.4658822766183 33.79695032726366 35.480000000000004 
3483 1161 2 0.527 37.4658822766183 32.28304967273634 35.480000000000004 
3484 1162 1 -1.054 37.2 27.400000000000002 19.2 
3485 1162 2 0.527 37.785882276618295 28.156950327263665 19.2 
3486 1162 2 0.527 37.785882276618295 26.64304967273634 19.2 
3487 1163 1 -1.054 17.0 31.36 15.920000000000002 
3488 1163 2 0.527 17.585882276618293 32.116950327263666 15.920000000000002 
3489 1163 2 0.527 17.585882276618293 30.60304967273634 15.920000000000002 
3490 1164 1 -1.054 7.880000000000001 38.72 9.120000000000001 
3491 1164 2 0.527 8.465882276618295 39.47695032726366 9.120000000000001 
3492 1164 2 0.527 8.465882276618295 37.96304967273634 9.120000000000001 
3493 1165 1 -1.054 36.160000000000004 4.12 18.48 
3494 1165 2 0.527 36.745882276618296 4.876950327263661 18.48 
3495 1165 2 0.527 36.745882276618296 3.3630496727363384 18.48 
3496 1166 1 -1.054 3.76 15.68 8.4 
3497 1166 2 0.527 4.345882276618295 16.436950327263663 8.4 
3498 1166 2 0.527 4.345882276618295 14.92304967273634 8.4 
3499 1167 1 -1.054 1.7999999999999998 27.919999999999998 10.120000000000001 
3500 1167 2 0.527 2.385882276618295 28.67695032726366 10.120000000000001 
3501 1167 2 0.527 2.385882276618295 27.163049672736335 10.120000000000001 
3502 1168 1 -1.054 15.36 21.04 37.480000000000004 
3503 1168 2 0.527 15.945882276618295 21.796950327263662 37.480000000000004 
3504 1168 2 0.527 15.945882276618295 20.28304967273634 37.480000000000004 
3505 1169 1 -1.054 23.52 13.48 19.68 
3506 1169 2 0.527 24.105882276618296 14.236950327263662 19.68 
3507 1169 2 0.527 24.105882276618296 12.72304967273634 19.68 
3508 1170 1 -1.054 13.600000000000001 5.24 7.880000000000001 
3509 1170 2 0.527 14.185882276618296 5.9969503272636615 7.880000000000001 
3510 1170 2 0.527 14.185882276618296 4.483049672736339 7.880000000000001 
3511 1171 1 -1.054 22.240000000000002 25.72 11.799999999999999 
3512 1171 2 0.527 22.825882276618298 26.476950327263662 11.799999999999999 
3513 1171 2 0.527 22.825882276618298 24.96304967273634 11.799999999999999 
3514 1172 1 -1.054 19.56 1.2 19.32 
3515 1172 2 0.527 20.145882276618295 1.9569503272636612 19.32 
3516 1172 2 0.527 20.145882276618295 0.4430496727363388 19.32 
3517 1173 1 -1.054 12.8 2.84 24.24 
3518 1173 2 0.527 13.385882276618295 3.596950327263661 24.24 
3519 1173 2 0.527 13.385882276618295 2.0830496727363386 24.24 
3520 1174 1 -1.054 1.28 20.64 21.32 
3521 1174 2 0.527 1.865882276618295 21.39695032726366 21.32 
3522 1174 2 0.527 1.865882276618295 19.88304967273634 21.32 
3523 1175 1 -1.054 11.68 9.48 18.720000000000002 
3524 1175 2 0.527 12.265882276618294 10.23695032726366 18.720000000000002 
3525 1175 2 0.527 12.265882276618294 8.723049672736337 18.720000000000002 
3526 1176 1 -1.054 19.759999999999998 26.12 3.7199999999999998 
3527 1176 2 0.527 20.345882276618298 26.876950327263664 3.7199999999999998 
3528 1176 2 0.527 20.345882276618298 25.363049672736338 3.7199999999999998 
3529 1177 1 -1.054 9.559999999999999 31.64 39.04 
3530 1177 2 0.527 10.145882276618295 32.39695032726366 39.04 
3531 1177 2 0.527 10.145882276618295 30.88304967273634 39.04 
3532 1178 1 -1.054 25.6 39.28 36.32 
3533 1178 2 0.527 26.185882276618297 40.03695032726366 36.32 
3534 1178 2 0.527 26.185882276618297 38.523049672736335 36.32 
3535 1179 1 -1.054 12.32 9.559999999999999 31.96 
3536 1179 2 0.527 12.905882276618295 10.316950327263662 31.96 
3537 1179 2 0.527 12.905882276618295 8.80304967273634 31.96 
3538 1180 1 -1.054 19.24 2.64 23.24 
3539 1180 2 0.527 19.825882276618294 3.3969503272636614 23.24 
3540 1180 2 0.527 19.825882276618294 1.8830496727363388 23.24 
3541 1181 1 -1.054 30.36 19.84 19.759999999999998 
3542 1181 2 0.527 30.9458822766183 20.596950327263663 19.759999999999998 
3543 1181 2 0.527 30.9458822766183 19.083049672736337 19.759999999999998 
3544 1182 1 -1.054 32.559999999999995 27.480000000000004 19.6 
3545 1182 2 0.527 33.145882276618295 28.236950327263663 19.6 
3546 1182 2 0.527 33.145882276618295 26.72304967273634 19.6 
3547 1183 1 -1.054 14.52 32.559999999999995 8.8 
3548 1183 2 0.527 15.105882276618294 33.31695032726366 8.8 
3549 1183 2 0.527 15.105882276618294 31.803049672736336 8.8 
3550 1184 1 -1.054 8.32 8.96 36.52 
3551 1184 2 0.527 8.905882276618295 9.716950327263662 36.52 
3552 1184 2 0.527 8.905882276618295 8.20304967273634 36.52 
3553 1185 1 -1.054 28.04 1.36 1.36 
3554 1185 2 0.527 28.625882276618295 2.1169503272636616 1.36 
3555 1185 2 0.527 28.625882276618295 0.6030496727363389 1.36 
3556 1186 1 -1.054 34.44 4.680000000000001 13.440000000000001 
3557 1186 2 0.527 35.0258822766183 5.436950327263661 13.440000000000001 
3558 1186 2 0.527 35.0258822766183 3.923049672736339 13.440000000000001 
3559 1187 1 -1.054 24.0 34.64 33.44 
3560 1187 2 0.527 24.585882276618296 35.39695032726366 33.44 
3561 1187 2 0.527 24.585882276618296 33.88304967273634 33.44 
3562 1188 1 -1.054 23.439999999999998 18.44 12.76 
3563 1188 2 0.527 24.025882276618297 19.19695032726366 12.76 
3564 1188 2 0.527 24.025882276618297 17.683049672736338 12.76 
3565 1189 1 -1.054 34.16 36.88 8.16 
3566 1189 2 0.527 34.745882276618296 37.63695032726366 8.16 
3567 1189 2 0.527 34.745882276618296 36.12304967273634 8.16 
3568 1190 1 -1.054 27.040000000000003 30.32 9.92 
3569 1190 2 0.527 27.6258822766183 31.07695032726366 9.92 
3570 1190 2 0.527 27.6258822766183 29.56304967273634 9.92 
3571 1191 1 -1.054 3.5599999999999996 33.32 2.84 
3572 1191 2 0.527 4.145882276618295 34.07695032726366 2.84 
3573 1191 2 0.527 4.145882276618295 32.56304967273634 2.84 
3574 1192 1 -1.054 35.480000000000004 21.36 34.36 
3575 1192 2 0.527 36.0658822766183 22.116950327263663 34.36 
3576 1192 2 0.527 36.0658822766183 20.60304967273634 34.36 
3577 1193 1 -1.054 14.76 23.119999999999997 35.24 
3578 1193 2 0.527 15.345882276618294 23.87695032726366 35.24 
3579 1193 2 0.527 15.345882276618294 22.363049672736338 35.24 
3580 1194 1 -1.054 13.72 22.519999999999996 11.68 
3581 1194 2 0.527 14.305882276618295 23.27695032726366 11.68 
3582 1194 2 0.527 14.305882276618295 21.763049672736337 11.68 
3583 1195 1 -1.054 3.6799999999999997 17.2 37.400000000000006 
3584 1195 2 0.527 4.265882276618295 17.956950327263662 37.400000000000006 
3585 1195 2 0.527 4.265882276618295 16.44304967273634 37.400000000000006 
3586 1196 1 -1.054 26.6 7.76 22.639999999999997 
3587 1196 2 0.527 27.185882276618297 8.516950327263661 22.639999999999997 
3588 1196 2 0.527 27.185882276618297 7.0030496727363385 22.639999999999997 
3589 1197 1 -1.054 11.92 38.28 9.96 
3590 1197 2 0.527 12.505882276618294 39.03695032726366 9.96 
3591 1197 2 0.527 12.505882276618294 37.523049672736335 9.96 
3592 1198 1 -1.054 25.72 13.959999999999999 35.28 
3593 1198 2 0.527 26.3058822766183 14.71695032726366 35.28 
3594 1198 2 0.527 26.3058822766183 13.203049672736338 35.28 
3595 1199 1 -1.054 13.759999999999998 18.28 13.08 
3596 1199 2 0.527 14.345882276618294 19.03695032726366 13.08 
3597 1199 2 0.527 14.345882276618294 17.523049672736338 13.08 
3598 1200 1 -1.054 31.48 37.0 3.08 
3599 1200 2 0.527 32.0658822766183 37.75695032726367 3.08 
3600 1200 2 0.527 32.0658822766183 36.24304967273634 3.08 
3601 1201 1 -1.054 36.08 10.120000000000001 13.360000000000001 
3602 1201 2 0.527 36.6658822766183 10.87695032726366 13.360000000000001 
3603 1201 2 0.527 36.6658822766183 9.363049672736338 13.360000000000001 
3604 1202 1 -1.054 2.2 17.6 34.48 
3605 1202 2 0.527 2.785882276618295 18.35695032726366 34.48 
3606 1202 2 0.527 2.785882276618295 16.84304967273634 34.48 
3607 1203 1 -1.054 17.92 32.599999999999994 1.0 
3608 1203 2 0.527 18.505882276618294 33.35695032726366 1.0 
3609 1203 2 0.527 18.505882276618294 31.843049672736335 1.0 
3610 1204 1 -1.054 5.5600000000000005 20.28 31.8 
3611 1204 2 0.527 6.145882276618295 21.03695032726366 31.8 
3612 1204 2 0.527 6.145882276618295 19.523049672736338 31.8 
3613 1205 1 -1.054 19.759999999999998 1.56 6.879999999999999 
3614 1205 2 0.527 20.345882276618298 2.316950327263661 6.879999999999999 
3615 1205 2 0.527 20.345882276618298 0.8030496727363389 6.879999999999999 
3616 1206 1 -1.054 7.720000000000001 29.759999999999998 23.68 
3617 1206 2 0.527 8.305882276618295 30.51695032726366 23.68 
3618 1206 2 0.527 8.305882276618295 29.00304967273634 23.68 
3619 1207 1 -1.054 0.68 30.0 36.0 
3620 1207 2 0.527 1.265882276618295 30.75695032726366 36.0 
3621 1207 2 0.527 1.265882276618295 29.24304967273634 36.0 
3622 1208 1 -1.054 12.28 37.2 23.119999999999997 
3623 1208 2 0.527 12.865882276618294 37.95695032726366 23.119999999999997 
3624 1208 2 0.527 12.865882276618294 36.44304967273634 23.119999999999997 
3625 1209 1 -1.054 0.28 27.759999999999998 15.600000000000001 
3626 1209 2 0.527 0.865882276618295 28.516950327263658 15.600000000000001 
3627 1209 2 0.527 0.865882276618295 27.00304967273634 15.600000000000001 
3628 1210 1 -1.054 28.56 31.76 20.04 
3629 1210 2 0.527 29.145882276618295 32.516950327263665 20.04 
3630 1210 2 0.527 29.145882276618295 31.00304967273634 20.04 
3631 1211 1 -1.054 35.76 21.36 23.36 
3632 1211 2 0.527 36.3458822766183 22.116950327263663 23.36 
3633 1211 2 0.527 36.3458822766183 20.60304967273634 23.36 
3634 1212 1 -1.054 28.759999999999998 4.44 7.279999999999999 
3635 1212 2 0.527 29.345882276618298 5.196950327263661 7.279999999999999 
3636 1212 2 0.527 29.345882276618298 3.6830496727363387 7.279999999999999 
3637 1213 1 -1.054 2.0 17.6 10.32 
3638 1213 2 0.527 2.5858822766182947 18.35695032726366 10.32 
3639 1213 2 0.527 2.5858822766182947 16.84304967273634 10.32 
3640 1214 1 -1.054 18.36 21.200000000000003 20.880000000000003 
3641 1214 2 0.527 18.945882276618295 21.956950327263662 20.880000000000003 
3642 1214 2 0.527 18.945882276618295 20.44304967273634 20.880000000000003 
3643 1215 1 -1.054 39.08 25.880000000000003 21.6 
3644 1215 2 0.527 39.6658822766183 26.636950327263662 21.6 
3645 1215 2 0.527 39.6658822766183 25.12304967273634 21.6 
3646 1216 1 -1.054 2.68 37.08 32.28 
3647 1216 2 0.527 3.265882276618295 37.836950327263665 32.28 
3648 1216 2 0.527 3.265882276618295 36.32304967273634 32.28 
3649 1217 1 -1.054 33.32 36.24 34.72 
3650 1217 2 0.527 33.90588227661829 36.99695032726366 34.72 
3651 1217 2 0.527 33.90588227661829 35.48304967273634 34.72 
3652 1218 1 -1.054 20.84 6.16 1.04 
3653 1218 2 0.527 21.425882276618296 6.916950327263661 1.04 
3654 1218 2 0.527 21.425882276618296 5.403049672736339 1.04 
3655 1219 1 -1.054 5.44 26.48 29.92 
3656 1219 2 0.527 6.025882276618296 27.236950327263663 29.92 
3657 1219 2 0.527 6.025882276618296 25.72304967273634 29.92 
3658 1220 1 -1.054 11.399999999999999 31.0 16.68 
3659 1220 2 0.527 11.985882276618295 31.756950327263663 16.68 
3660 1220 2 0.527 11.985882276618295 30.24304967273634 16.68 
3661 1221 1 -1.054 18.2 16.8 27.160000000000004 
3662 1221 2 0.527 18.785882276618295 17.55695032726366 27.160000000000004 
3663 1221 2 0.527 18.785882276618295 16.043049672736338 27.160000000000004 
3664 1222 1 -1.054 15.16 37.480000000000004 20.64 
3665 1222 2 0.527 15.745882276618294 38.23695032726366 20.64 
3666 1222 2 0.527 15.745882276618294 36.72304967273634 20.64 
3667 1223 1 -1.054 31.200000000000003 8.16 16.56 
3668 1223 2 0.527 31.7858822766183 8.916950327263661 16.56 
3669 1223 2 0.527 31.7858822766183 7.403049672736338 16.56 
3670 1224 1 -1.054 33.64 29.439999999999998 14.559999999999999 
3671 1224 2 0.527 34.22588227661829 30.19695032726366 14.559999999999999 
3672 1224 2 0.527 34.22588227661829 28.683049672736338 14.559999999999999 
3673 1225 1 -1.054 33.64 11.0 37.400000000000006 
3674 1225 2 0.527 34.22588227661829 11.756950327263663 37.400000000000006 
3675 1225 2 0.527 34.22588227661829 10.24304967273634 37.400000000000006 
3676 1226 1 -1.054 26.36 9.360000000000001 4.640000000000001 
3677 1226 2 0.527 26.9458822766183 10.11695032726366 4.640000000000001 
3678 1226 2 0.527 26.9458822766183 8.60304967273634 4.640000000000001 
3679 1227 1 -1.054 25.64 37.92 9.64 
3680 1227 2 0.527 26.225882276618297 38.67695032726366 9.64 
3681 1227 2 0.527 26.225882276618297 37.163049672736335 9.64 
3682 1228 1 -1.054 30.72 29.52 14.64 
3683 1228 2 0.527 31.3058822766183 30.276950327263663 14.64 
3684 1228 2 0.527 31.3058822766183 28.763049672736337 14.64 
3685 1229 1 -1.054 38.68 39.84 3.4399999999999995 
3686 1229 2 0.527 39.2658822766183 40.59695032726366 3.4399999999999995 
3687 1229 2 0.527 39.2658822766183 39.08304967273634 3.4399999999999995 
3688 1230 1 -1.054 26.76 30.92 0.36 
3689 1230 2 0.527 27.345882276618298 31.67695032726366 0.36 
3690 1230 2 0.527 27.345882276618298 30.16304967273634 0.36 
3691 1231 1 -1.054 24.48 14.32 6.800000000000001 
3692 1231 2 0.527 25.065882276618296 15.07695032726366 6.800000000000001 
3693 1231 2 0.527 25.065882276618296 13.563049672736337 6.800000000000001 
3694 1232 1 -1.054 12.4 16.16 4.24 
3695 1232 2 0.527 12.985882276618295 16.916950327263663 4.24 
3696 1232 2 0.527 12.985882276618295 15.40304967273634 4.24 
3697 1233 1 -1.054 38.04 16.68 9.200000000000001 
3698 1233 2 0.527 38.6258822766183 17.43695032726366 9.200000000000001 
3699 1233 2 0.527 38.6258822766183 15.923049672736338 9.200000000000001 
3700 1234 1 -1.054 15.600000000000001 5.12 23.119999999999997 
3701 1234 2 0.527 16.185882276618294 5.876950327263661 23.119999999999997 
3702 1234 2 0.527 16.185882276618294 4.363049672736339 23.119999999999997 
3703 1235 1 -1.054 11.92 20.32 34.6 
3704 1235 2 0.527 12.505882276618294 21.07695032726366 34.6 
3705 1235 2 0.527 12.505882276618294 19.56304967273634 34.6 
3706 1236 1 -1.054 39.92 38.92 20.36 
3707 1236 2 0.527 40.505882276618294 39.67695032726366 20.36 
3708 1236 2 0.527 40.505882276618294 38.163049672736335 20.36 
3709 1237 1 -1.054 5.96 12.4 29.119999999999997 
3710 1237 2 0.527 6.545882276618294 13.156950327263662 29.119999999999997 
3711 1237 2 0.527 6.545882276618294 11.643049672736339 29.119999999999997 
3712 1238 1 -1.054 18.560000000000002 39.519999999999996 24.2 
3713 1238 2 0.527 19.145882276618295 40.27695032726366 24.2 
3714 1238 2 0.527 19.145882276618295 38.76304967273634 24.2 
3715 1239 1 -1.054 36.92 28.24 12.68 
3716 1239 2 0.527 37.5058822766183 28.99695032726366 12.68 
3717 1239 2 0.527 37.5058822766183 27.483049672736335 12.68 
3718 1240 1 -1.054 3.4799999999999995 4.5200000000000005 36.64 
3719 1240 2 0.527 4.065882276618295 5.276950327263661 36.64 
3720 1240 2 0.527 4.065882276618295 3.7630496727363387 36.64 
3721 1241 1 -1.054 21.36 20.84 26.880000000000003 
3722 1241 2 0.527 21.9458822766183 21.596950327263663 26.880000000000003 
3723 1241 2 0.527 21.9458822766183 20.08304967273634 26.880000000000003 
3724 1242 1 -1.054 17.12 21.32 6.720000000000001 
3725 1242 2 0.527 17.705882276618294 22.076950327263663 6.720000000000001 
3726 1242 2 0.527 17.705882276618294 20.56304967273634 6.720000000000001 
3727 1243 1 -1.054 17.2 23.919999999999998 20.04 
3728 1243 2 0.527 17.785882276618295 24.67695032726366 20.04 
3729 1243 2 0.527 17.785882276618295 23.16304967273634 20.04 
3730 1244 1 -1.054 1.0 19.56 8.24 
3731 1244 2 0.527 1.5858822766182952 20.316950327263662 8.24 
3732 1244 2 0.527 1.5858822766182952 18.80304967273634 8.24 
3733 1245 1 -1.054 21.720000000000002 36.4 14.92 
3734 1245 2 0.527 22.3058822766183 37.156950327263665 14.92 
3735 1245 2 0.527 22.3058822766183 35.64304967273634 14.92 
3736 1246 1 -1.054 11.399999999999999 35.92 12.88 
3737 1246 2 0.527 11.985882276618295 36.67695032726366 12.88 
3738 1246 2 0.527 11.985882276618295 35.16304967273634 12.88 
3739 1247 1 -1.054 17.64 6.08 8.120000000000001 
3740 1247 2 0.527 18.225882276618293 6.836950327263661 8.120000000000001 
3741 1247 2 0.527 18.225882276618293 5.323049672736339 8.120000000000001 
3742 1248 1 -1.054 16.200000000000003 15.0 13.4 
3743 1248 2 0.527 16.785882276618295 15.756950327263661 13.4 
3744 1248 2 0.527 16.785882276618295 14.243049672736339 13.4 
3745 1249 1 -1.054 17.04 4.2 5.04 
3746 1249 2 0.527 17.625882276618295 4.9569503272636615 5.04 
3747 1249 2 0.527 17.625882276618295 3.4430496727363384 5.04 
3748 1250 1 -1.054 33.92 5.32 10.04 
3749 1250 2 0.527 34.505882276618294 6.076950327263662 10.04 
3750 1250 2 0.527 34.505882276618294 4.563049672736339 10.04 
3751 1251 1 -1.054 2.08 13.16 0.32 
3752 1251 2 0.527 2.665882276618295 13.916950327263661 0.32 
3753 1251 2 0.527 2.665882276618295 12.403049672736339 0.32 
3754 1252 1 -1.054 26.28 33.44 21.68 
3755 1252 2 0.527 26.865882276618297 34.19695032726366 21.68 
3756 1252 2 0.527 26.865882276618297 32.68304967273634 21.68 
3757 1253 1 -1.054 33.96 9.120000000000001 4.24 
3758 1253 2 0.527 34.54588227661829 9.876950327263662 4.24 
3759 1253 2 0.527 34.54588227661829 8.36304967273634 4.24 
3760 1254 1 -1.054 12.16 37.96 32.839999999999996 
3761 1254 2 0.527 12.745882276618294 38.71695032726366 32.839999999999996 
3762 1254 2 0.527 12.745882276618294 37.203049672736334 32.839999999999996 
3763 1255 1 -1.054 4.5600000000000005 6.2 27.400000000000002 
3764 1255 2 0.527 5.145882276618296 6.9569503272636615 27.400000000000002 
3765 1255 2 0.527 5.145882276618296 5.443049672736339 27.400000000000002 
3766 1256 1 -1.054 22.599999999999998 31.12 33.92 
3767 1256 2 0.527 23.185882276618294 31.876950327263664 33.92 
3768 1256 2 0.527 23.185882276618294 30.363049672736338 33.92 
3769 1257 1 -1.054 23.52 8.64 10.48 
3770 1257 2 0.527 24.105882276618296 9.396950327263662 10.48 
3771 1257 2 0.527 24.105882276618296 7.883049672736338 10.48 
3772 1258 1 -1.054 31.92 32.64 12.0 
3773 1258 2 0.527 32.5058822766183 33.39695032726366 12.0 
3774 1258 2 0.527 32.5058822766183 31.883049672736337 12.0 
3775 1259 1 -1.054 12.44 28.72 33.04 
3776 1259 2 0.527 13.025882276618294 29.47695032726366 33.04 
3777 1259 2 0.527 13.025882276618294 27.96304967273634 33.04 
3778 1260 1 -1.054 21.200000000000003 23.68 24.56 
3779 1260 2 0.527 21.7858822766183 24.43695032726366 24.56 
3780 1260 2 0.527 21.7858822766183 22.923049672736337 24.56 
3781 1261 1 -1.054 33.519999999999996 9.32 14.239999999999998 
3782 1261 2 0.527 34.105882276618296 10.07695032726366 14.239999999999998 
3783 1261 2 0.527 34.105882276618296 8.563049672736339 14.239999999999998 
3784 1262 1 -1.054 25.560000000000002 17.96 22.519999999999996 
3785 1262 2 0.527 26.1458822766183 18.71695032726366 22.519999999999996 
3786 1262 2 0.527 26.1458822766183 17.203049672736338 22.519999999999996 
3787 1263 1 -1.054 0.68 21.240000000000002 28.24 
3788 1263 2 0.527 1.265882276618295 21.99695032726366 28.24 
3789 1263 2 0.527 1.265882276618295 20.48304967273634 28.24 
3790 1264 1 -1.054 3.76 31.880000000000003 9.120000000000001 
3791 1264 2 0.527 4.345882276618295 32.63695032726366 9.120000000000001 
3792 1264 2 0.527 4.345882276618295 31.12304967273634 9.120000000000001 
3793 1265 1 -1.054 24.84 33.199999999999996 12.76 
3794 1265 2 0.527 25.425882276618296 33.95695032726366 12.76 
3795 1265 2 0.527 25.425882276618296 32.443049672736336 12.76 
3796 1266 1 -1.054 29.72 10.72 18.0 
3797 1266 2 0.527 30.3058822766183 11.476950327263662 18.0 
3798 1266 2 0.527 30.3058822766183 9.96304967273634 18.0 
3799 1267 1 -1.054 35.36 15.4 9.6 
3800 1267 2 0.527 35.9458822766183 16.15695032726366 9.6 
3801 1267 2 0.527 35.9458822766183 14.643049672736339 9.6 
3802 1268 1 -1.054 9.84 2.4 36.6 
3803 1268 2 0.527 10.425882276618294 3.156950327263661 36.6 
3804 1268 2 0.527 10.425882276618294 1.6430496727363386 36.6 
3805 1269 1 -1.054 23.799999999999997 11.639999999999999 3.6399999999999997 
3806 1269 2 0.527 24.385882276618297 12.39695032726366 3.6399999999999997 
3807 1269 2 0.527 24.385882276618297 10.883049672736337 3.6399999999999997 
3808 1270 1 -1.054 34.88 12.68 26.720000000000002 
3809 1270 2 0.527 35.465882276618295 13.436950327263661 26.720000000000002 
3810 1270 2 0.527 35.465882276618295 11.923049672736338 26.720000000000002 
3811 1271 1 -1.054 9.64 29.68 13.08 
3812 1271 2 0.527 10.225882276618295 30.43695032726366 13.08 
3813 1271 2 0.527 10.225882276618295 28.92304967273634 13.08 
3814 1272 1 -1.054 38.04 39.28 23.759999999999998 
3815 1272 2 0.527 38.6258822766183 40.03695032726366 23.759999999999998 
3816 1272 2 0.527 38.6258822766183 38.523049672736335 23.759999999999998 
3817 1273 1 -1.054 23.759999999999998 37.64 38.68 
3818 1273 2 0.527 24.345882276618298 38.39695032726366 38.68 
3819 1273 2 0.527 24.345882276618298 36.883049672736334 38.68 
3820 1274 1 -1.054 13.440000000000001 12.6 37.0 
3821 1274 2 0.527 14.025882276618296 13.356950327263661 37.0 
3822 1274 2 0.527 14.025882276618296 11.843049672736338 37.0 
3823 1275 1 -1.054 0.08 3.08 31.520000000000003 
3824 1275 2 0.527 0.6658822766182949 3.8369503272636614 31.520000000000003 
3825 1275 2 0.527 0.6658822766182949 2.3230496727363388 31.520000000000003 
3826 1276 1 -1.054 29.16 18.88 36.2 
3827 1276 2 0.527 29.745882276618296 19.636950327263662 36.2 
3828 1276 2 0.527 29.745882276618296 18.123049672736336 36.2 
3829 1277 1 -1.054 39.44 15.16 22.56 
3830 1277 2 0.527 40.02588227661829 15.916950327263661 22.56 
3831 1277 2 0.527 40.02588227661829 14.403049672736339 22.56 
3832 1278 1 -1.054 3.96 14.92 28.439999999999998 
3833 1278 2 0.527 4.545882276618295 15.676950327263661 28.439999999999998 
3834 1278 2 0.527 4.545882276618295 14.163049672736339 28.439999999999998 
3835 1279 1 -1.054 34.0 10.68 11.879999999999999 
3836 1279 2 0.527 34.58588227661829 11.436950327263663 11.879999999999999 
3837 1279 2 0.527 34.58588227661829 9.92304967273634 11.879999999999999 
3838 1280 1 -1.054 38.56 12.52 30.76 
3839 1280 2 0.527 39.145882276618295 13.27695032726366 30.76 
3840 1280 2 0.527 39.145882276618295 11.763049672736338 30.76 
3841 1281 1 -1.054 10.16 24.92 20.44 
3842 1281 2 0.527 10.745882276618294 25.67695032726366 20.44 
3843 1281 2 0.527 10.745882276618294 24.16304967273634 20.44 
3844 1282 1 -1.054 22.959999999999997 16.84 29.04 
3845 1282 2 0.527 23.545882276618293 17.59695032726366 29.04 
3846 1282 2 0.527 23.545882276618293 16.083049672736337 29.04 
3847 1283 1 -1.054 27.44 15.440000000000001 29.24 
3848 1283 2 0.527 28.025882276618297 16.19695032726366 29.24 
3849 1283 2 0.527 28.025882276618297 14.683049672736338 29.24 
3850 1284 1 -1.054 20.16 20.96 18.44 
3851 1284 2 0.527 20.745882276618296 21.71695032726366 18.44 
3852 1284 2 0.527 20.745882276618296 20.20304967273634 18.44 
3853 1285 1 -1.054 7.16 8.24 20.48 
3854 1285 2 0.527 7.745882276618294 8.996950327263662 20.48 
3855 1285 2 0.527 7.745882276618294 7.483049672736338 20.48 
3856 1286 1 -1.054 39.44 9.08 33.56 
3857 1286 2 0.527 40.02588227661829 9.836950327263661 33.56 
3858 1286 2 0.527 40.02588227661829 8.323049672736339 33.56 
3859 1287 1 -1.054 37.839999999999996 28.08 15.72 
3860 1287 2 0.527 38.425882276618296 28.836950327263658 15.72 
3861 1287 2 0.527 38.425882276618296 27.32304967273634 15.72 
3862 1288 1 -1.054 3.5199999999999996 10.48 29.04 
3863 1288 2 0.527 4.105882276618295 11.236950327263662 29.04 
3864 1288 2 0.527 4.105882276618295 9.72304967273634 29.04 
3865 1289 1 -1.054 6.4 0.64 8.24 
3866 1289 2 0.527 6.985882276618295 1.3969503272636614 8.24 
3867 1289 2 0.527 6.985882276618295 -0.11695032726366114 8.24 
3868 1290 1 -1.054 34.36 31.16 31.400000000000002 
3869 1290 2 0.527 34.9458822766183 31.916950327263663 31.400000000000002 
3870 1290 2 0.527 34.9458822766183 30.40304967273634 31.400000000000002 
3871 1291 1 -1.054 24.36 27.44 9.8 
3872 1291 2 0.527 24.945882276618295 28.196950327263664 9.8 
3873 1291 2 0.527 24.945882276618295 26.68304967273634 9.8 
3874 1292 1 -1.054 36.04 19.759999999999998 15.4 
3875 1292 2 0.527 36.6258822766183 20.51695032726366 15.4 
3876 1292 2 0.527 36.6258822766183 19.00304967273634 15.4 
3877 1293 1 -1.054 33.04 38.36 14.239999999999998 
3878 1293 2 0.527 33.6258822766183 39.11695032726366 14.239999999999998 
3879 1293 2 0.527 33.6258822766183 37.60304967273634 14.239999999999998 
3880 1294 1 -1.054 23.72 8.96 24.96 
3881 1294 2 0.527 24.305882276618295 9.716950327263662 24.96 
3882 1294 2 0.527 24.305882276618295 8.20304967273634 24.96 
3883 1295 1 -1.054 10.04 7.800000000000001 18.12 
3884 1295 2 0.527 10.625882276618295 8.556950327263662 18.12 
3885 1295 2 0.527 10.625882276618295 7.043049672736339 18.12 
3886 1296 1 -1.054 24.8 20.28 4.76 
3887 1296 2 0.527 25.385882276618297 21.03695032726366 4.76 
3888 1296 2 0.527 25.385882276618297 19.523049672736338 4.76 
3889 1297 1 -1.054 31.720000000000002 14.16 32.559999999999995 
3890 1297 2 0.527 32.3058822766183 14.91695032726366 32.559999999999995 
3891 1297 2 0.527 32.3058822766183 13.403049672736337 32.559999999999995 
3892 1298 1 -1.054 31.16 19.56 27.28 
3893 1298 2 0.527 31.745882276618296 20.316950327263662 27.28 
3894 1298 2 0.527 31.745882276618296 18.80304967273634 27.28 
3895 1299 1 -1.054 36.4 38.36 35.32 
3896 1299 2 0.527 36.9858822766183 39.11695032726366 35.32 
3897 1299 2 0.527 36.9858822766183 37.60304967273634 35.32 
3898 1300 1 -1.054 21.32 7.92 28.56 
3899 1300 2 0.527 21.9058822766183 8.676950327263661 28.56 
3900 1300 2 0.527 21.9058822766183 7.163049672736339 28.56 
3901 1301 1 -1.054 34.48 9.16 7.84 
3902 1301 2 0.527 35.0658822766183 9.916950327263661 7.84 
3903 1301 2 0.527 35.0658822766183 8.403049672736339 7.84 
3904 1302 1 -1.054 23.599999999999998 38.32 2.48 
3905 1302 2 0.527 24.185882276618294 39.07695032726366 2.48 
3906 1302 2 0.527 24.185882276618294 37.56304967273634 2.48 
3907 1303 1 -1.054 16.8 14.48 9.76 
3908 1303 2 0.527 17.385882276618293 15.23695032726366 9.76 
3909 1303 2 0.527 17.385882276618293 13.723049672736337 9.76 
3910 1304 1 -1.054 1.12 1.56 11.44 
3911 1304 2 0.527 1.7058822766182948 2.316950327263661 11.44 
3912 1304 2 0.527 1.7058822766182948 0.8030496727363389 11.44 
3913 1305 1 -1.054 35.56 6.680000000000001 24.759999999999998 
3914 1305 2 0.527 36.145882276618295 7.436950327263662 24.759999999999998 
3915 1305 2 0.527 36.145882276618295 5.923049672736339 24.759999999999998 
3916 1306 1 -1.054 15.0 24.6 3.6799999999999997 
3917 1306 2 0.527 15.585882276618294 25.35695032726366 3.6799999999999997 
3918 1306 2 0.527 15.585882276618294 23.84304967273634 3.6799999999999997 
3919 1307 1 -1.054 9.76 13.440000000000001 2.8000000000000003 
3920 1307 2 0.527 10.345882276618294 14.196950327263663 2.8000000000000003 
3921 1307 2 0.527 10.345882276618294 12.68304967273634 2.8000000000000003 
3922 1308 1 -1.054 21.240000000000002 25.48 6.959999999999999 
3923 1308 2 0.527 21.825882276618298 26.236950327263663 6.959999999999999 
3924 1308 2 0.527 21.825882276618298 24.723049672736337 6.959999999999999 
3925 1309 1 -1.054 28.88 20.32 39.56 
3926 1309 2 0.527 29.465882276618295 21.07695032726366 39.56 
3927 1309 2 0.527 29.465882276618295 19.56304967273634 39.56 
3928 1310 1 -1.054 11.68 24.56 10.52 
3929 1310 2 0.527 12.265882276618294 25.316950327263662 10.52 
3930 1310 2 0.527 12.265882276618294 23.80304967273634 10.52 
3931 1311 1 -1.054 8.64 21.6 25.8 
3932 1311 2 0.527 9.225882276618295 22.35695032726366 25.8 
3933 1311 2 0.527 9.225882276618295 20.843049672736342 25.8 
3934 1312 1 -1.054 30.8 33.96 30.16 
3935 1312 2 0.527 31.385882276618297 34.71695032726366 30.16 
3936 1312 2 0.527 31.385882276618297 33.20304967273634 30.16 
3937 1313 1 -1.054 22.88 38.44 5.2 
3938 1313 2 0.527 23.465882276618295 39.19695032726366 5.2 
3939 1313 2 0.527 23.465882276618295 37.68304967273634 5.2 
3940 1314 1 -1.054 27.480000000000004 22.919999999999998 3.6799999999999997 
3941 1314 2 0.527 28.0658822766183 23.67695032726366 3.6799999999999997 
3942 1314 2 0.527 28.0658822766183 22.163049672736335 3.6799999999999997 
3943 1315 1 -1.054 34.28 22.44 9.040000000000001 
3944 1315 2 0.527 34.865882276618294 23.196950327263664 9.040000000000001 
3945 1315 2 0.527 34.865882276618294 21.68304967273634 9.040000000000001 
3946 1316 1 -1.054 6.44 29.6 18.28 
3947 1316 2 0.527 7.025882276618295 30.35695032726366 18.28 
3948 1316 2 0.527 7.025882276618295 28.84304967273634 18.28 
3949 1317 1 -1.054 19.52 12.72 7.08 
3950 1317 2 0.527 20.105882276618296 13.476950327263662 7.08 
3951 1317 2 0.527 20.105882276618296 11.96304967273634 7.08 
3952 1318 1 -1.054 8.48 22.240000000000002 20.16 
3953 1318 2 0.527 9.065882276618295 22.99695032726366 20.16 
3954 1318 2 0.527 9.065882276618295 21.483049672736342 20.16 
3955 1319 1 -1.054 38.6 19.2 32.0 
3956 1319 2 0.527 39.185882276618294 19.956950327263662 32.0 
3957 1319 2 0.527 39.185882276618294 18.443049672736336 32.0 
3958 1320 1 -1.054 21.8 0.64 4.08 
3959 1320 2 0.527 22.385882276618297 1.3969503272636614 4.08 
3960 1320 2 0.527 22.385882276618297 -0.11695032726366114 4.08 
3961 1321 1 -1.054 26.880000000000003 4.72 0.43999999999999995 
3962 1321 2 0.527 27.4658822766183 5.476950327263661 0.43999999999999995 
3963 1321 2 0.527 27.4658822766183 3.9630496727363385 0.43999999999999995 
3964 1322 1 -1.054 24.36 27.919999999999998 0.16 
3965 1322 2 0.527 24.945882276618295 28.67695032726366 0.16 
3966 1322 2 0.527 24.945882276618295 27.163049672736335 0.16 
3967 1323 1 -1.054 29.6 5.4 33.32 
3968 1323 2 0.527 30.185882276618297 6.156950327263662 33.32 
3969 1323 2 0.527 30.185882276618297 4.643049672736339 33.32 
3970 1324 1 -1.054 8.040000000000001 6.720000000000001 34.6 
3971 1324 2 0.527 8.625882276618295 7.476950327263662 34.6 
3972 1324 2 0.527 8.625882276618295 5.963049672736339 34.6 
3973 1325 1 -1.054 24.84 30.36 11.0 
3974 1325 2 0.527 25.425882276618296 31.116950327263663 11.0 
3975 1325 2 0.527 25.425882276618296 29.60304967273634 11.0 
3976 1326 1 -1.054 20.2 39.28 9.559999999999999 
3977 1326 2 0.527 20.785882276618295 40.03695032726366 9.559999999999999 
3978 1326 2 0.527 20.785882276618295 38.523049672736335 9.559999999999999 
3979 1327 1 -1.054 7.359999999999999 19.28 12.0 
3980 1327 2 0.527 7.945882276618295 20.03695032726366 12.0 
3981 1327 2 0.527 7.945882276618295 18.523049672736338 12.0 
3982 1328 1 -1.054 25.4 33.96 24.439999999999998 
3983 1328 2 0.527 25.985882276618298 34.71695032726366 24.439999999999998 
3984 1328 2 0.527 25.985882276618298 33.20304967273634 24.439999999999998 
3985 1329 1 -1.054 6.36 18.88 1.24 
3986 1329 2 0.527 6.945882276618295 19.636950327263662 1.24 
3987 1329 2 0.527 6.945882276618295 18.123049672736336 1.24 
3988 1330 1 -1.054 2.7600000000000002 34.56 16.8 
3989 1330 2 0.527 3.345882276618295 35.31695032726366 16.8 
3990 1330 2 0.527 3.345882276618295 33.803049672736336 16.8 
3991 1331 1 -1.054 9.200000000000001 25.36 37.24 
3992 1331 2 0.527 9.785882276618295 26.116950327263663 37.24 
3993 1331 2 0.527 9.785882276618295 24.60304967273634 37.24 
3994 1332 1 -1.054 7.039999999999999 18.64 19.439999999999998 
3995 1332 2 0.527 7.625882276618294 19.396950327263664 19.439999999999998 
3996 1332 2 0.527 7.625882276618294 17.88304967273634 19.439999999999998 
3997 1333 1 -1.054 0.32 26.0 38.72 
3998 1333 2 0.527 0.905882276618295 26.756950327263663 38.72 
3999 1333 2 0.527 0.905882276618295 25.24304967273634 38.72 
4000 1334 1 -1.054 8.0 14.68 38.56 
4001 1334 2 0.527 8.585882276618296 15.436950327263661 38.56 
4002 1334 2 0.527 8.585882276618296 13.923049672736338 38.56 
4003 1335 1 -1.054 32.92 10.0 0.16 
4004 1335 2 0.527 33.505882276618294 10.756950327263661 0.16 
4005 1335 2 0.527 33.505882276618294 9.243049672736339 0.16 
4006 1336 1 -1.054 30.4 8.24 38.76 
4007 1336 2 0.527 30.985882276618298 8.996950327263662 38.76 
4008 1336 2 0.527 30.985882276618298 7.483049672736338 38.76 
4009 1337 1 -1.054 1.36 4.28 3.2 
4010 1337 2 0.527 1.945882276618295 5.036950327263661 3.2 
4011 1337 2 0.527 1.945882276618295 3.5230496727363385 3.2 
4012 1338 1 -1.054 29.24 37.96 23.64 
4013 1338 2 0.527 29.825882276618294 38.71695032726366 23.64 
4014 1338 2 0.527 29.825882276618294 37.203049672736334 23.64 
4015 1339 1 -1.054 33.0 24.36 20.72 
4016 1339 2 0.527 33.58588227661829 25.11695032726366 20.72 
4017 1339 2 0.527 33.58588227661829 23.60304967273634 20.72 
4018 1340 1 -1.054 27.12 36.480000000000004 15.64 
4019 1340 2 0.527 27.705882276618297 37.23695032726366 15.64 
4020 1340 2 0.527 27.705882276618297 35.72304967273634 15.64 
4021 1341 1 -1.054 5.8 17.2 21.36 
4022 1341 2 0.527 6.385882276618294 17.956950327263662 21.36 
4023 1341 2 0.527 6.385882276618294 16.44304967273634 21.36 
4024 1342 1 -1.054 28.72 21.68 20.28 
4025 1342 2 0.527 29.305882276618295 22.436950327263663 20.28 
4026 1342 2 0.527 29.305882276618295 20.92304967273634 20.28 
4027 1343 1 -1.054 25.04 30.240000000000002 6.08 
4028 1343 2 0.527 25.6258822766183 30.99695032726366 6.08 
4029 1343 2 0.527 25.6258822766183 29.48304967273634 6.08 
4030 1344 1 -1.054 6.44 13.360000000000001 11.28 
4031 1344 2 0.527 7.025882276618295 14.116950327263663 11.28 
4032 1344 2 0.527 7.025882276618295 12.60304967273634 11.28 
4033 1345 1 -1.054 24.0 38.76 16.8 
4034 1345 2 0.527 24.585882276618296 39.51695032726366 16.8 
4035 1345 2 0.527 24.585882276618296 38.00304967273634 16.8 
4036 1346 1 -1.054 36.32 39.519999999999996 31.68 
4037 1346 2 0.527 36.9058822766183 40.27695032726366 31.68 
4038 1346 2 0.527 36.9058822766183 38.76304967273634 31.68 
4039 1347 1 -1.054 0.16 21.560000000000002 14.559999999999999 
4040 1347 2 0.527 0.7458822766182949 22.316950327263662 14.559999999999999 
4041 1347 2 0.527 0.7458822766182949 20.80304967273634 14.559999999999999 
4042 1348 1 -1.054 11.399999999999999 24.0 6.16 
4043 1348 2 0.527 11.985882276618295 24.75695032726366 6.16 
4044 1348 2 0.527 11.985882276618295 23.243049672736337 6.16 
4045 1349 1 -1.054 20.560000000000002 21.68 5.6000000000000005 
4046 1349 2 0.527 21.1458822766183 22.436950327263663 5.6000000000000005 
4047 1349 2 0.527 21.1458822766183 20.92304967273634 5.6000000000000005 
4048 1350 1 -1.054 33.839999999999996 18.400000000000002 8.88 
4049 1350 2 0.527 34.425882276618296 19.15695032726366 8.88 
4050 1350 2 0.527 34.425882276618296 17.64304967273634 8.88 
4051 1351 1 -1.054 11.399999999999999 17.0 35.32 
4052 1351 2 0.527 11.985882276618295 17.75695032726366 35.32 
4053 1351 2 0.527 11.985882276618295 16.243049672736337 35.32 
4054 1352 1 -1.054 11.319999999999999 20.0 2.72 
4055 1352 2 0.527 11.905882276618293 20.75695032726366 2.72 
4056 1352 2 0.527 11.905882276618293 19.24304967273634 2.72 
4057 1353 1 -1.054 4.08 22.68 35.44 
4058 1353 2 0.527 4.665882276618294 23.43695032726366 35.44 
4059 1353 2 0.527 4.665882276618294 21.923049672736337 35.44 
4060 1354 1 -1.054 21.0 34.88 22.56 
4061 1354 2 0.527 21.5858822766183 35.63695032726366 22.56 
4062 1354 2 0.527 21.5858822766183 34.123049672736336 22.56 
4063 1355 1 -1.054 23.2 29.52 7.800000000000001 
4064 1355 2 0.527 23.785882276618295 30.276950327263663 7.800000000000001 
4065 1355 2 0.527 23.785882276618295 28.763049672736337 7.800000000000001 
4066 1356 1 -1.054 15.68 10.120000000000001 36.72 
4067 1356 2 0.527 16.265882276618296 10.87695032726366 36.72 
4068 1356 2 0.527 16.265882276618296 9.363049672736338 36.72 
4069 1357 1 -1.054 4.8 39.72 13.959999999999999 
4070 1357 2 0.527 5.385882276618295 40.47695032726366 13.959999999999999 
4071 1357 2 0.527 5.385882276618295 38.96304967273634 13.959999999999999 
4072 1358 1 -1.054 10.0 27.88 10.24 
4073 1358 2 0.527 10.585882276618294 28.63695032726366 10.24 
4074 1358 2 0.527 10.585882276618294 27.123049672736336 10.24 
4075 1359 1 -1.054 8.48 39.56 1.7599999999999998 
4076 1359 2 0.527 9.065882276618295 40.316950327263655 1.7599999999999998 
4077 1359 2 0.527 9.065882276618295 38.803049672736336 1.7599999999999998 
4078 1360 1 -1.054 7.84 37.08 15.84 
4079 1360 2 0.527 8.425882276618296 37.836950327263665 15.84 
4080 1360 2 0.527 8.425882276618296 36.32304967273634 15.84 
4081 1361 1 -1.054 31.36 18.68 3.8 
4082 1361 2 0.527 31.9458822766183 19.436950327263663 3.8 
4083 1361 2 0.527 31.9458822766183 17.92304967273634 3.8 
4084 1362 1 -1.054 23.919999999999998 3.88 22.080000000000002 
4085 1362 2 0.527 24.505882276618294 4.636950327263661 22.080000000000002 
4086 1362 2 0.527 24.505882276618294 3.1230496727363386 22.080000000000002 
4087 1363 1 -1.054 25.0 24.4 3.84 
4088 1363 2 0.527 25.585882276618296 25.15695032726366 3.84 
4089 1363 2 0.527 25.585882276618296 23.64304967273634 3.84 
4090 1364 1 -1.054 39.08 7.199999999999999 1.2 
4091 1364 2 0.527 39.6658822766183 7.956950327263661 1.2 
4092 1364 2 0.527 39.6658822766183 6.443049672736338 1.2 
4093 1365 1 -1.054 14.559999999999999 16.240000000000002 7.92 
4094 1365 2 0.527 15.145882276618295 16.99695032726366 7.92 
4095 1365 2 0.527 15.145882276618295 15.483049672736339 7.92 
4096 1366 1 -1.054 32.96 2.52 4.0 
4097 1366 2 0.527 33.54588227661829 3.2769503272636613 4.0 
4098 1366 2 0.527 33.54588227661829 1.7630496727363387 4.0 
4099 1367 1 -1.054 13.0 18.52 18.0 
4100 1367 2 0.527 13.585882276618296 19.276950327263663 18.0 
4101 1367 2 0.527 13.585882276618296 17.76304967273634 18.0 
4102 1368 1 -1.054 25.48 30.2 2.2800000000000002 
4103 1368 2 0.527 26.065882276618296 30.956950327263662 2.2800000000000002 
4104 1368 2 0.527 26.065882276618296 29.44304967273634 2.2800000000000002 
4105 1369 1 -1.054 11.799999999999999 3.12 0.56 
4106 1369 2 0.527 12.385882276618293 3.8769503272636614 0.56 
4107 1369 2 0.527 12.385882276618293 2.363049672736339 0.56 
4108 1370 1 -1.054 8.2 21.0 6.800000000000001 
4109 1370 2 0.527 8.785882276618294 21.756950327263663 6.800000000000001 
4110 1370 2 0.527 8.785882276618294 20.24304967273634 6.800000000000001 
4111 1371 1 -1.054 7.92 36.160000000000004 19.04 
4112 1371 2 0.527 8.505882276618294 36.91695032726366 19.04 
4113 1371 2 0.527 8.505882276618294 35.40304967273634 19.04 
4114 1372 1 -1.054 26.560000000000002 14.52 17.76 
4115 1372 2 0.527 27.1458822766183 15.27695032726366 17.76 
4116 1372 2 0.527 27.1458822766183 13.763049672736338 17.76 
4117 1373 1 -1.054 12.36 35.84 4.84 
4118 1373 2 0.527 12.945882276618295 36.59695032726366 4.84 
4119 1373 2 0.527 12.945882276618295 35.08304967273634 4.84 
4120 1374 1 -1.054 39.68 0.36 0.4 
4121 1374 2 0.527 40.26588227661829 1.1169503272636612 0.4 
4122 1374 2 0.527 40.26588227661829 -0.3969503272636612 0.4 
4123 1375 1 -1.054 5.04 17.36 17.24 
4124 1375 2 0.527 5.625882276618295 18.116950327263663 17.24 
4125 1375 2 0.527 5.625882276618295 16.60304967273634 17.24 
4126 1376 1 -1.054 37.28 38.199999999999996 5.04 
4127 1376 2 0.527 37.8658822766183 38.95695032726366 5.04 
4128 1376 2 0.527 37.8658822766183 37.443049672736336 5.04 
4129 1377 1 -1.054 39.24 38.0 27.44 
4130 1377 2 0.527 39.825882276618294 38.75695032726366 27.44 
4131 1377 2 0.527 39.825882276618294 37.24304967273633 27.44 
4132 1378 1 -1.054 27.44 27.88 22.160000000000004 
4133 1378 2 0.527 28.025882276618297 28.63695032726366 22.160000000000004 
4134 1378 2 0.527 28.025882276618297 27.123049672736336 22.160000000000004 
4135 1379 1 -1.054 20.0 19.68 29.04 
4136 1379 2 0.527 20.585882276618296 20.43695032726366 29.04 
4137 1379 2 0.527 20.585882276618296 18.92304967273634 29.04 
4138 1380 1 -1.054 21.240000000000002 7.92 38.28 
4139 1380 2 0.527 21.825882276618298 8.676950327263661 38.28 
4140 1380 2 0.527 21.825882276618298 7.163049672736339 38.28 
4141 1381 1 -1.054 40.0 22.68 22.759999999999998 
4142 1381 2 0.527 40.58588227661829 23.43695032726366 22.759999999999998 
4143 1381 2 0.527 40.58588227661829 21.923049672736337 22.759999999999998 
4144 1382 1 -1.054 3.8 33.96 31.12 
4145 1382 2 0.527 4.385882276618295 34.71695032726366 31.12 
4146 1382 2 0.527 4.385882276618295 33.20304967273634 31.12 
4147 1383 1 -1.054 37.28 14.04 36.36 
4148 1383 2 0.527 37.8658822766183 14.79695032726366 36.36 
4149 1383 2 0.527 37.8658822766183 13.283049672736338 36.36 
4150 1384 1 -1.054 9.559999999999999 0.52 25.64 
4151 1384 2 0.527 10.145882276618295 1.2769503272636613 25.64 
4152 1384 2 0.527 10.145882276618295 -0.23695032726366116 25.64 
4153 1385 1 -1.054 32.64 38.16 6.08 
4154 1385 2 0.527 33.22588227661829 38.91695032726366 6.08 
4155 1385 2 0.527 33.22588227661829 37.40304967273634 6.08 
4156 1386 1 -1.054 34.44 0.12 16.56 
4157 1386 2 0.527 35.0258822766183 0.8769503272636612 16.56 
4158 1386 2 0.527 35.0258822766183 -0.6369503272636612 16.56 
4159 1387 1 -1.054 2.64 25.28 14.8 
4160 1387 2 0.527 3.225882276618295 26.03695032726366 14.8 
4161 1387 2 0.527 3.225882276618295 24.523049672736338 14.8 
4162 1388 1 -1.054 37.879999999999995 33.839999999999996 39.84 
4163 1388 2 0.527 38.465882276618295 34.59695032726366 39.84 
4164 1388 2 0.527 38.465882276618295 33.08304967273634 39.84 
4165 1389 1 -1.054 3.7199999999999998 13.440000000000001 10.760000000000002 
4166 1389 2 0.527 4.305882276618295 14.196950327263663 10.760000000000002 
4167 1389 2 0.527 4.305882276618295 12.68304967273634 10.760000000000002 
4168 1390 1 -1.054 13.759999999999998 35.92 15.4 
4169 1390 2 0.527 14.345882276618294 36.67695032726366 15.4 
4170 1390 2 0.527 14.345882276618294 35.16304967273634 15.4 
4171 1391 1 -1.054 25.28 2.56 0.8799999999999999 
4172 1391 2 0.527 25.865882276618297 3.3169503272636613 0.8799999999999999 
4173 1391 2 0.527 25.865882276618297 1.8030496727363388 0.8799999999999999 
4174 1392 1 -1.054 18.720000000000002 27.56 10.0 
4175 1392 2 0.527 19.305882276618295 28.31695032726366 10.0 
4176 1392 2 0.527 19.305882276618295 26.803049672736336 10.0 
4177 1393 1 -1.054 39.56 9.559999999999999 18.0 
4178 1393 2 0.527 40.145882276618295 10.316950327263662 18.0 
4179 1393 2 0.527 40.145882276618295 8.80304967273634 18.0 
4180 1394 1 -1.054 5.24 30.44 26.520000000000003 
4181 1394 2 0.527 5.8258822766182945 31.19695032726366 26.520000000000003 
4182 1394 2 0.527 5.8258822766182945 29.683049672736338 26.520000000000003 
4183 1395 1 -1.054 28.759999999999998 38.16 32.68 
4184 1395 2 0.527 29.345882276618298 38.91695032726366 32.68 
4185 1395 2 0.527 29.345882276618298 37.40304967273634 32.68 
4186 1396 1 -1.054 0.64 24.28 31.16 
4187 1396 2 0.527 1.225882276618295 25.03695032726366 31.16 
4188 1396 2 0.527 1.225882276618295 23.523049672736338 31.16 
4189 1397 1 -1.054 28.36 9.24 40.0 
4190 1397 2 0.527 28.945882276618295 9.996950327263662 40.0 
4191 1397 2 0.527 28.945882276618295 8.483049672736339 40.0 
4192 1398 1 -1.054 28.599999999999998 12.04 38.0 
4193 1398 2 0.527 29.185882276618294 12.79695032726366 38.0 
4194 1398 2 0.527 29.185882276618294 11.283049672736338 38.0 
4195 1399 1 -1.054 19.16 36.36 24.72 
4196 1399 2 0.527 19.745882276618293 37.116950327263666 24.72 
4197 1399 2 0.527 19.745882276618293 35.60304967273634 24.72 
4198 1400 1 -1.054 8.16 9.68 31.0 
4199 1400 2 0.527 8.745882276618294 10.436950327263661 31.0 
4200 1400 2 0.527 8.745882276618294 8.923049672736338 31.0 
4201 1401 1 -1.054 4.24 2.2800000000000002 1.6800000000000002 
4202 1401 2 0.527 4.8258822766182945 3.036950327263661 1.6800000000000002 
4203 1401 2 0.527 4.8258822766182945 1.523049672736339 1.6800000000000002 
4204 1402 1 -1.054 3.76 29.28 31.96 
4205 1402 2 0.527 4.345882276618295 30.03695032726366 31.96 
4206 1402 2 0.527 4.345882276618295 28.523049672736338 31.96 
4207 1403 1 -1.054 6.879999999999999 13.440000000000001 17.04 
4208 1403 2 0.527 7.465882276618294 14.196950327263663 17.04 
4209 1403 2 0.527 7.465882276618294 12.68304967273634 17.04 
4210 1404 1 -1.054 10.96 15.600000000000001 22.160000000000004 
4211 1404 2 0.527 11.545882276618295 16.35695032726366 22.160000000000004 
4212 1404 2 0.527 11.545882276618295 14.843049672736338 22.160000000000004 
4213 1405 1 -1.054 5.6000000000000005 8.8 16.919999999999998 
4214 1405 2 0.527 6.185882276618296 9.556950327263662 16.919999999999998 
4215 1405 2 0.527 6.185882276618296 8.04304967273634 16.919999999999998 
4216 1406 1 -1.054 32.28 39.36 8.96 
4217 1406 2 0.527 32.8658822766183 40.11695032726366 8.96 
4218 1406 2 0.527 32.8658822766183 38.60304967273634 8.96 
4219 1407 1 -1.054 39.64 11.879999999999999 9.399999999999999 
4220 1407 2 0.527 40.22588227661829 12.63695032726366 9.399999999999999 
4221 1407 2 0.527 40.22588227661829 11.123049672736338 9.399999999999999 
4222 1408 1 -1.054 9.280000000000001 10.96 9.719999999999999 
4223 1408 2 0.527 9.865882276618295 11.716950327263662 9.719999999999999 
4224 1408 2 0.527 9.865882276618295 10.20304967273634 9.719999999999999 
4225 1409 1 -1.054 6.36 18.560000000000002 8.2 
4226 1409 2 0.527 6.945882276618295 19.316950327263662 8.2 
4227 1409 2 0.527 6.945882276618295 17.80304967273634 8.2 
4228 1410 1 -1.054 19.119999999999997 12.64 20.84 
4229 1410 2 0.527 19.705882276618294 13.396950327263662 20.84 
4230 1410 2 0.527 19.705882276618294 11.88304967273634 20.84 
4231 1411 1 -1.054 18.44 21.68 16.080000000000002 
4232 1411 2 0.527 19.025882276618297 22.436950327263663 16.080000000000002 
4233 1411 2 0.527 19.025882276618297 20.92304967273634 16.080000000000002 
4234 1412 1 -1.054 19.72 19.88 37.0 
4235 1412 2 0.527 20.3058822766183 20.636950327263662 37.0 
4236 1412 2 0.527 20.3058822766183 19.12304967273634 37.0 
4237 1413 1 -1.054 38.68 31.12 12.4 
4238 1413 2 0.527 39.2658822766183 31.876950327263664 12.4 
4239 1413 2 0.527 39.2658822766183 30.363049672736338 12.4 
4240 1414 1 -1.054 1.4000000000000001 14.96 30.64 
4241 1414 2 0.527 1.985882276618295 15.71695032726366 30.64 
4242 1414 2 0.527 1.985882276618295 14.203049672736338 30.64 
4243 1415 1 -1.054 28.68 9.120000000000001 29.36 
4244 1415 2 0.527 29.265882276618296 9.876950327263662 29.36 
4245 1415 2 0.527 29.265882276618296 8.36304967273634 29.36 
4246 1416 1 -1.054 18.44 29.32 13.56 
4247 1416 2 0.527 19.025882276618297 30.07695032726366 13.56 
4248 1416 2 0.527 19.025882276618297 28.563049672736337 13.56 
4249 1417 1 -1.054 8.0 30.68 11.559999999999999 
4250 1417 2 0.527 8.585882276618296 31.436950327263663 11.559999999999999 
4251 1417 2 0.527 8.585882276618296 29.92304967273634 11.559999999999999 
4252 1418 1 -1.054 26.28 9.360000000000001 8.24 
4253 1418 2 0.527 26.865882276618297 10.11695032726366 8.24 
4254 1418 2 0.527 26.865882276618297 8.60304967273634 8.24 
4255 1419 1 -1.054 38.36 3.24 29.48 
4256 1419 2 0.527 38.94588227661829 3.9969503272636615 29.48 
4257 1419 2 0.527 38.94588227661829 2.483049672736339 29.48 
4258 1420 1 -1.054 8.92 28.799999999999997 31.32 
4259 1420 2 0.527 9.505882276618294 29.55695032726366 31.32 
4260 1420 2 0.527 9.505882276618294 28.043049672736338 31.32 
4261 1421 1 -1.054 16.279999999999998 25.16 0.64 
4262 1421 2 0.527 16.865882276618294 25.916950327263663 0.64 
4263 1421 2 0.527 16.865882276618294 24.403049672736337 0.64 
4264 1422 1 -1.054 29.52 21.12 2.0 
4265 1422 2 0.527 30.105882276618296 21.876950327263664 2.0 
4266 1422 2 0.527 30.105882276618296 20.363049672736338 2.0 
4267 1423 1 -1.054 8.24 3.0 19.96 
4268 1423 2 0.527 8.825882276618294 3.7569503272636613 19.96 
4269 1423 2 0.527 8.825882276618294 2.2430496727363387 19.96 
4270 1424 1 -1.054 31.44 29.4 25.08 
4271 1424 2 0.527 32.0258822766183 30.15695032726366 25.08 
4272 1424 2 0.527 32.0258822766183 28.64304967273634 25.08 
4273 1425 1 -1.054 20.64 39.4 31.32 
4274 1425 2 0.527 21.225882276618297 40.15695032726366 31.32 
4275 1425 2 0.527 21.225882276618297 38.64304967273634 31.32 
4276 1426 1 -1.054 7.880000000000001 11.080000000000002 0.4 
4277 1426 2 0.527 8.465882276618295 11.836950327263661 0.4 
4278 1426 2 0.527 8.465882276618295 10.323049672736339 0.4 
4279 1427 1 -1.054 24.16 5.36 39.12 
4280 1427 2 0.527 24.745882276618296 6.116950327263662 39.12 
4281 1427 2 0.527 24.745882276618296 4.603049672736339 39.12 
4282 1428 1 -1.054 28.919999999999998 16.88 8.44 
4283 1428 2 0.527 29.505882276618294 17.636950327263662 8.44 
4284 1428 2 0.527 29.505882276618294 16.12304967273634 8.44 
4285 1429 1 -1.054 6.32 11.399999999999999 7.039999999999999 
4286 1429 2 0.527 6.905882276618295 12.15695032726366 7.039999999999999 
4287 1429 2 0.527 6.905882276618295 10.643049672736337 7.039999999999999 
4288 1430 1 -1.054 30.48 8.08 35.56 
4289 1430 2 0.527 31.065882276618296 8.836950327263661 35.56 
4290 1430 2 0.527 31.065882276618296 7.323049672736339 35.56 
4291 1431 1 -1.054 32.519999999999996 0.4 32.2 
4292 1431 2 0.527 33.105882276618296 1.1569503272636612 32.2 
4293 1431 2 0.527 33.105882276618296 -0.35695032726366116 32.2 
4294 1432 1 -1.054 30.64 2.64 5.4 
4295 1432 2 0.527 31.225882276618297 3.3969503272636614 5.4 
4296 1432 2 0.527 31.225882276618297 1.8830496727363388 5.4 
4297 1433 1 -1.054 19.72 3.5999999999999996 26.520000000000003 
4298 1433 2 0.527 20.3058822766183 4.356950327263661 26.520000000000003 
4299 1433 2 0.527 20.3058822766183 2.8430496727363384 26.520000000000003 
4300 1434 1 -1.054 27.040000000000003 22.200000000000003 16.279999999999998 
4301 1434 2 0.527 27.6258822766183 22.956950327263662 16.279999999999998 
4302 1434 2 0.527 27.6258822766183 21.44304967273634 16.279999999999998 
4303 1435 1 -1.054 2.96 33.0 22.360000000000003 
4304 1435 2 0.527 3.5458822766182947 33.75695032726366 22.360000000000003 
4305 1435 2 0.527 3.5458822766182947 32.24304967273633 22.360000000000003 
4306 1436 1 -1.054 5.28 33.64 39.12 
4307 1436 2 0.527 5.865882276618295 34.39695032726366 39.12 
4308 1436 2 0.527 5.865882276618295 32.883049672736334 39.12 
4309 1437 1 -1.054 5.36 5.6000000000000005 24.28 
4310 1437 2 0.527 5.9458822766182955 6.356950327263662 24.28 
4311 1437 2 0.527 5.9458822766182955 4.843049672736339 24.28 
4312 1438 1 -1.054 22.200000000000003 25.48 18.400000000000002 
4313 1438 2 0.527 22.7858822766183 26.236950327263663 18.400000000000002 
4314 1438 2 0.527 22.7858822766183 24.723049672736337 18.400000000000002 
4315 1439 1 -1.054 16.68 7.4399999999999995 4.5200000000000005 
4316 1439 2 0.527 17.265882276618292 8.19695032726366 4.5200000000000005 
4317 1439 2 0.527 17.265882276618292 6.683049672736338 4.5200000000000005 
4318 1440 1 -1.054 27.88 5.24 20.92 
4319 1440 2 0.527 28.465882276618295 5.9969503272636615 20.92 
4320 1440 2 0.527 28.465882276618295 4.483049672736339 20.92 
4321 1441 1 -1.054 38.48 24.32 35.24 
4322 1441 2 0.527 39.0658822766183 25.07695032726366 35.24 
4323 1441 2 0.527 39.0658822766183 23.563049672736337 35.24 
4324 1442 1 -1.054 37.24 15.72 4.44 
4325 1442 2 0.527 37.8258822766183 16.476950327263662 4.44 
4326 1442 2 0.527 37.8258822766183 14.96304967273634 4.44 
4327 1443 1 -1.054 18.720000000000002 30.84 8.24 
4328 1443 2 0.527 19.305882276618295 31.596950327263663 8.24 
4329 1443 2 0.527 19.305882276618295 30.08304967273634 8.24 
4330 1444 1 -1.054 31.36 5.48 21.6 
4331 1444 2 0.527 31.9458822766183 6.236950327263662 21.6 
4332 1444 2 0.527 31.9458822766183 4.723049672736339 21.6 
4333 1445 1 -1.054 27.240000000000002 35.84 4.44 
4334 1445 2 0.527 27.825882276618298 36.59695032726366 4.44 
4335 1445 2 0.527 27.825882276618298 35.08304967273634 4.44 
4336 1446 1 -1.054 14.48 1.7199999999999998 12.52 
4337 1446 2 0.527 15.065882276618295 2.476950327263661 12.52 
4338 1446 2 0.527 15.065882276618295 0.9630496727363387 12.52 
4339 1447 1 -1.054 35.56 16.72 14.28 
4340 1447 2 0.527 36.145882276618295 17.476950327263662 14.28 
4341 1447 2 0.527 36.145882276618295 15.963049672736338 14.28 
4342 1448 1 -1.054 21.92 30.2 16.4 
4343 1448 2 0.527 22.505882276618298 30.956950327263662 16.4 
4344 1448 2 0.527 22.505882276618298 29.44304967273634 16.4 
4345 1449 1 -1.054 16.200000000000003 1.36 38.839999999999996 
4346 1449 2 0.527 16.785882276618295 2.1169503272636616 38.839999999999996 
4347 1449 2 0.527 16.785882276618295 0.6030496727363389 38.839999999999996 
4348 1450 1 -1.054 27.56 10.760000000000002 15.84 
4349 1450 2 0.527 28.145882276618295 11.516950327263661 15.84 
4350 1450 2 0.527 28.145882276618295 10.003049672736338 15.84 
4351 1451 1 -1.054 17.4 10.56 13.48 
4352 1451 2 0.527 17.985882276618295 11.316950327263662 13.48 
4353 1451 2 0.527 17.985882276618295 9.80304967273634 13.48 
4354 1452 1 -1.054 39.12 8.96 20.560000000000002 
4355 1452 2 0.527 39.7058822766183 9.716950327263662 20.560000000000002 
4356 1452 2 0.527 39.7058822766183 8.20304967273634 20.560000000000002 
4357 1453 1 -1.054 27.080000000000002 38.32 39.24 
4358 1453 2 0.527 27.665882276618298 39.07695032726366 39.24 
4359 1453 2 0.527 27.665882276618298 37.56304967273634 39.24 
4360 1454 1 -1.054 28.24 16.8 4.04 
4361 1454 2 0.527 28.825882276618294 17.55695032726366 4.04 
4362 1454 2 0.527 28.825882276618294 16.043049672736338 4.04 
4363 1455 1 -1.054 0.12 7.640000000000001 3.84 
4364 1455 2 0.527 0.705882276618295 8.396950327263662 3.84 
4365 1455 2 0.527 0.705882276618295 6.883049672736339 3.84 
4366 1456 1 -1.054 24.24 33.48 19.759999999999998 
4367 1456 2 0.527 24.825882276618294 34.236950327263656 19.759999999999998 
4368 1456 2 0.527 24.825882276618294 32.72304967273634 19.759999999999998 
4369 1457 1 -1.054 10.96 32.24 34.44 
4370 1457 2 0.527 11.545882276618295 32.99695032726366 34.44 
4371 1457 2 0.527 11.545882276618295 31.483049672736342 34.44 
4372 1458 1 -1.054 18.759999999999998 6.5600000000000005 29.88 
4373 1458 2 0.527 19.345882276618294 7.316950327263662 29.88 
4374 1458 2 0.527 19.345882276618294 5.803049672736339 29.88 
4375 1459 1 -1.054 21.68 6.04 7.52 
4376 1459 2 0.527 22.2658822766183 6.796950327263661 7.52 
4377 1459 2 0.527 22.2658822766183 5.283049672736339 7.52 
4378 1460 1 -1.054 18.44 12.24 31.48 
4379 1460 2 0.527 19.025882276618297 12.996950327263662 31.48 
4380 1460 2 0.527 19.025882276618297 11.483049672736339 31.48 
4381 1461 1 -1.054 1.08 34.04 7.359999999999999 
4382 1461 2 0.527 1.6658822766182948 34.79695032726366 7.359999999999999 
4383 1461 2 0.527 1.6658822766182948 33.28304967273634 7.359999999999999 
4384 1462 1 -1.054 5.8 38.239999999999995 36.08 
4385 1462 2 0.527 6.385882276618294 38.99695032726366 36.08 
4386 1462 2 0.527 6.385882276618294 37.483049672736335 36.08 
4387 1463 1 -1.054 35.36 7.68 30.240000000000002 
4388 1463 2 0.527 35.9458822766183 8.436950327263661 30.240000000000002 
4389 1463 2 0.527 35.9458822766183 6.923049672736338 30.240000000000002 
4390 1464 1 -1.054 18.64 0.6 33.08 
4391 1464 2 0.527 19.225882276618297 1.3569503272636614 33.08 
4392 1464 2 0.527 19.225882276618297 -0.15695032726366118 33.08 
4393 1465 1 -1.054 39.32 8.6 11.76 
4394 1465 2 0.527 39.9058822766183 9.356950327263661 11.76 
4395 1465 2 0.527 39.9058822766183 7.843049672736338 11.76 
4396 1466 1 -1.054 36.2 14.12 1.6400000000000001 
4397 1466 2 0.527 36.785882276618295 14.87695032726366 1.6400000000000001 
4398 1466 2 0.527 36.785882276618295 13.363049672736338 1.6400000000000001 
4399 1467 1 -1.054 16.12 39.96 27.200000000000003 
4400 1467 2 0.527 16.705882276618297 40.71695032726366 27.200000000000003 
4401 1467 2 0.527 16.705882276618297 39.20304967273634 27.200000000000003 
4402 1468 1 -1.054 25.64 33.6 1.1600000000000001 
4403 1468 2 0.527 26.225882276618297 34.35695032726366 1.1600000000000001 
4404 1468 2 0.527 26.225882276618297 32.843049672736335 1.1600000000000001 
4405 1469 1 -1.054 33.64 13.84 2.16 
4406 1469 2 0.527 34.22588227661829 14.59695032726366 2.16 
4407 1469 2 0.527 34.22588227661829 13.083049672736337 2.16 
4408 1470 1 -1.054 10.64 37.72 36.72 
4409 1470 2 0.527 11.225882276618295 38.47695032726366 36.72 
4410 1470 2 0.527 11.225882276618295 36.96304967273634 36.72 
4411 1471 1 -1.054 1.24 30.64 2.2800000000000002 
4412 1471 2 0.527 1.825882276618295 31.39695032726366 2.2800000000000002 
4413 1471 2 0.527 1.825882276618295 29.88304967273634 2.2800000000000002 
4414 1472 1 -1.054 13.200000000000001 25.04 1.48 
4415 1472 2 0.527 13.785882276618295 25.796950327263662 1.48 
4416 1472 2 0.527 13.785882276618295 24.28304967273634 1.48 
4417 1473 1 -1.054 2.52 16.16 23.32 
4418 1473 2 0.527 3.1058822766182947 16.916950327263663 23.32 
4419 1473 2 0.527 3.1058822766182947 15.40304967273634 23.32 
4420 1474 1 -1.054 33.36 6.92 25.96 
4421 1474 2 0.527 33.94588227661829 7.676950327263661 25.96 
4422 1474 2 0.527 33.94588227661829 6.163049672736339 25.96 
4423 1475 1 -1.054 7.16 37.72 27.160000000000004 
4424 1475 2 0.527 7.745882276618294 38.47695032726366 27.160000000000004 
4425 1475 2 0.527 7.745882276618294 36.96304967273634 27.160000000000004 
4426 1476 1 -1.054 10.16 18.68 23.72 
4427 1476 2 0.527 10.745882276618294 19.436950327263663 23.72 
4428 1476 2 0.527 10.745882276618294 17.92304967273634 23.72 
4429 1477 1 -1.054 38.08 35.2 18.04 
4430 1477 2 0.527 38.6658822766183 35.95695032726366 18.04 
4431 1477 2 0.527 38.6658822766183 34.443049672736336 18.04 
4432 1478 1 -1.054 11.120000000000001 38.839999999999996 4.5600000000000005 
4433 1478 2 0.527 11.705882276618295 39.59695032726366 4.5600000000000005 
4434 1478 2 0.527 11.705882276618295 38.08304967273634 4.5600000000000005 
4435 1479 1 -1.054 23.04 35.52 0.8799999999999999 
4436 1479 2 0.527 23.625882276618295 36.27695032726366 0.8799999999999999 
4437 1479 2 0.527 23.625882276618295 34.76304967273634 0.8799999999999999 
4438 1480 1 -1.054 37.400000000000006 2.88 6.5200000000000005 
4439 1480 2 0.527 37.9858822766183 3.636950327263661 6.5200000000000005 
4440 1480 2 0.527 37.9858822766183 2.1230496727363386 6.5200000000000005 
4441 1481 1 -1.054 7.359999999999999 5.5200000000000005 36.64 
4442 1481 2 0.527 7.945882276618295 6.276950327263662 36.64 
4443 1481 2 0.527 7.945882276618295 4.763049672736339 36.64 
4444 1482 1 -1.054 36.6 16.16 30.44 
4445 1482 2 0.527 37.1858822766183 16.916950327263663 30.44 
4446 1482 2 0.527 37.1858822766183 15.40304967273634 30.44 
4447 1483 1 -1.054 12.72 6.12 16.0 
4448 1483 2 0.527 13.305882276618295 6.876950327263661 16.0 
4449 1483 2 0.527 13.305882276618295 5.363049672736339 16.0 
4450 1484 1 -1.054 33.239999999999995 19.88 29.68 
4451 1484 2 0.527 33.825882276618294 20.636950327263662 29.68 
4452 1484 2 0.527 33.825882276618294 19.12304967273634 29.68 
4453 1485 1 -1.054 2.16 1.28 34.92 
4454 1485 2 0.527 2.745882276618295 2.0369503272636615 34.92 
4455 1485 2 0.527 2.745882276618295 0.5230496727363388 34.92 
4456 1486 1 -1.054 15.52 0.43999999999999995 8.76 
4457 1486 2 0.527 16.105882276618296 1.1969503272636612 8.76 
4458 1486 2 0.527 16.105882276618296 -0.3169503272636612 8.76 
4459 1487 1 -1.054 11.36 4.72 4.92 
4460 1487 2 0.527 11.945882276618294 5.476950327263661 4.92 
4461 1487 2 0.527 11.945882276618294 3.9630496727363385 4.92 
4462 1488 1 -1.054 26.720000000000002 1.52 16.36 
4463 1488 2 0.527 27.3058822766183 2.276950327263661 16.36 
4464 1488 2 0.527 27.3058822766183 0.7630496727363388 16.36 
4465 1489 1 -1.054 21.04 6.48 25.52 
4466 1489 2 0.527 21.6258822766183 7.236950327263662 25.52 
4467 1489 2 0.527 21.6258822766183 5.723049672736339 25.52 
4468 1490 1 -1.054 18.32 7.039999999999999 17.84 
4469 1490 2 0.527 18.905882276618296 7.79695032726366 17.84 
4470 1490 2 0.527 18.905882276618296 6.283049672736338 17.84 
4471 1491 1 -1.054 27.400000000000002 7.48 33.28 
4472 1491 2 0.527 27.985882276618298 8.236950327263662 33.28 
4473 1491 2 0.527 27.985882276618298 6.723049672736339 33.28 
4474 1492 1 -1.054 36.64 36.4 32.96 
4475 1492 2 0.527 37.2258822766183 37.156950327263665 32.96 
4476 1492 2 0.527 37.2258822766183 35.64304967273634 32.96 
4477 1493 1 -1.054 37.440000000000005 19.36 37.28 
4478 1493 2 0.527 38.0258822766183 20.11695032726366 37.28 
4479 1493 2 0.527 38.0258822766183 18.60304967273634 37.28 
4480 1494 1 -1.054 4.48 26.48 20.880000000000003 
4481 1494 2 0.527 5.065882276618296 27.236950327263663 20.880000000000003 
4482 1494 2 0.527 5.065882276618296 25.72304967273634 20.880000000000003 
4483 1495 1 -1.054 32.160000000000004 39.04 35.44 
4484 1495 2 0.527 32.745882276618296 39.79695032726366 35.44 
4485 1495 2 0.527 32.745882276618296 38.28304967273634 35.44 
4486 1496 1 -1.054 32.04 13.680000000000001 35.64 
4487 1496 2 0.527 32.6258822766183 14.436950327263663 35.64 
4488 1496 2 0.527 32.6258822766183 12.92304967273634 35.64 
4489 1497 1 -1.054 22.599999999999998 39.0 7.640000000000001 
4490 1497 2 0.527 23.185882276618294 39.75695032726366 7.640000000000001 
4491 1497 2 0.527 23.185882276618294 38.24304967273634 7.640000000000001 
4492 1498 1 -1.054 17.8 27.599999999999998 31.76 
4493 1498 2 0.527 18.385882276618297 28.35695032726366 31.76 
4494 1498 2 0.527 18.385882276618297 26.843049672736335 31.76 
4495 1499 1 -1.054 8.0 29.24 1.04 
4496 1499 2 0.527 8.585882276618296 29.99695032726366 1.04 
4497 1499 2 0.527 8.585882276618296 28.48304967273634 1.04 
4498 1500 1 -1.054 17.44 16.240000000000002 30.240000000000002 
4499 1500 2 0.527 18.025882276618294 16.99695032726366 30.240000000000002 
4500 1500 2 0.527 18.025882276618294 15.483049672736339 30.240000000000002 
4501 1501 1 -1.054 21.28 9.44 23.24 
4502 1501 2 0.527 21.865882276618297 10.19695032726366 23.24 
4503 1501 2 0.527 21.865882276618297 8.683049672736338 23.24 
4504 1502 1 -1.054 29.0 37.96 2.36 
4505 1502 2 0.527 29.585882276618296 38.71695032726366 2.36 
4506 1502 2 0.527 29.585882276618296 37.203049672736334 2.36 
4507 1503 1 -1.054 1.56 34.08 26.720000000000002 
4508 1503 2 0.527 2.145882276618295 34.83695032726366 26.720000000000002 
4509 1503 2 0.527 2.145882276618295 33.32304967273634 26.720000000000002 
4510 1504 1 -1.054 24.32 35.36 8.8 
4511 1504 2 0.527 24.905882276618296 36.11695032726366 8.8 
4512 1504 2 0.527 24.905882276618296 34.60304967273634 8.8 
4513 1505 1 -1.054 25.36 0.12 30.4 
4514 1505 2 0.527 25.9458822766183 0.8769503272636612 30.4 
4515 1505 2 0.527 25.9458822766183 -0.6369503272636612 30.4 
4516 1506 1 -1.054 13.040000000000001 33.56 37.28 
4517 1506 2 0.527 13.625882276618295 34.31695032726366 37.28 
4518 1506 2 0.527 13.625882276618295 32.803049672736336 37.28 
4519 1507 1 -1.054 12.36 31.48 23.159999999999997 
4520 1507 2 0.527 12.945882276618295 32.23695032726366 23.159999999999997 
4521 1507 2 0.527 12.945882276618295 30.72304967273634 23.159999999999997 
4522 1508 1 -1.054 4.4 31.28 5.12 
4523 1508 2 0.527 4.985882276618295 32.03695032726366 5.12 
4524 1508 2 0.527 4.985882276618295 30.52304967273634 5.12 
4525 1509 1 -1.054 6.24 7.640000000000001 2.3200000000000003 
4526 1509 2 0.527 6.8258822766182945 8.396950327263662 2.3200000000000003 
4527 1509 2 0.527 6.8258822766182945 6.883049672736339 2.3200000000000003 
4528 1510 1 -1.054 10.88 35.44 38.92 
4529 1510 2 0.527 11.465882276618295 36.196950327263664 38.92 
4530 1510 2 0.527 11.465882276618295 34.68304967273634 38.92 
4531 1511 1 -1.054 18.64 23.159999999999997 24.84 
4532 1511 2 0.527 19.225882276618297 23.91695032726366 24.84 
4533 1511 2 0.527 19.225882276618297 22.403049672736337 24.84 
4534 1512 1 -1.054 7.6 26.720000000000002 22.200000000000003 
4535 1512 2 0.527 8.185882276618294 27.476950327263662 22.200000000000003 
4536 1512 2 0.527 8.185882276618294 25.96304967273634 22.200000000000003 
4537 1513 1 -1.054 15.600000000000001 13.120000000000001 22.28 
4538 1513 2 0.527 16.185882276618294 13.876950327263662 22.28 
4539 1513 2 0.527 16.185882276618294 12.36304967273634 22.28 
4540 1514 1 -1.054 5.28 38.0 8.040000000000001 
4541 1514 2 0.527 5.865882276618295 38.75695032726366 8.040000000000001 
4542 1514 2 0.527 5.865882276618295 37.24304967273633 8.040000000000001 
4543 1515 1 -1.054 4.08 3.4399999999999995 10.48 
4544 1515 2 0.527 4.665882276618294 4.196950327263661 10.48 
4545 1515 2 0.527 4.665882276618294 2.683049672736338 10.48 
4546 1516 1 -1.054 17.16 12.52 38.28 
4547 1516 2 0.527 17.745882276618296 13.27695032726366 38.28 
4548 1516 2 0.527 17.745882276618296 11.763049672736338 38.28 
4549 1517 1 -1.054 35.84 25.4 25.0 
4550 1517 2 0.527 36.425882276618296 26.15695032726366 25.0 
4551 1517 2 0.527 36.425882276618296 24.64304967273634 25.0 
4552 1518 1 -1.054 2.2800000000000002 32.68 11.0 
4553 1518 2 0.527 2.865882276618295 33.43695032726366 11.0 
4554 1518 2 0.527 2.865882276618295 31.923049672736337 11.0 
4555 1519 1 -1.054 0.8400000000000001 28.88 4.28 
4556 1519 2 0.527 1.425882276618295 29.636950327263662 4.28 
4557 1519 2 0.527 1.425882276618295 28.123049672736336 4.28 
4558 1520 1 -1.054 33.36 2.7600000000000002 0.36 
4559 1520 2 0.527 33.94588227661829 3.5169503272636615 0.36 
4560 1520 2 0.527 33.94588227661829 2.003049672736339 0.36 
4561 1521 1 -1.054 28.72 33.56 8.8 
4562 1521 2 0.527 29.305882276618295 34.31695032726366 8.8 
4563 1521 2 0.527 29.305882276618295 32.803049672736336 8.8 
4564 1522 1 -1.054 18.799999999999997 38.36 17.96 
4565 1522 2 0.527 19.385882276618293 39.11695032726366 17.96 
4566 1522 2 0.527 19.385882276618293 37.60304967273634 17.96 
4567 1523 1 -1.054 5.44 0.43999999999999995 27.32 
4568 1523 2 0.527 6.025882276618296 1.1969503272636612 27.32 
4569 1523 2 0.527 6.025882276618296 -0.3169503272636612 27.32 
4570 1524 1 -1.054 30.76 27.400000000000002 7.76 
4571 1524 2 0.527 31.345882276618298 28.156950327263665 7.76 
4572 1524 2 0.527 31.345882276618298 26.64304967273634 7.76 
4573 1525 1 -1.054 2.04 38.56 22.360000000000003 
4574 1525 2 0.527 2.6258822766182948 39.31695032726366 22.360000000000003 
4575 1525 2 0.527 2.6258822766182948 37.803049672736336 22.360000000000003 
4576 1526 1 -1.054 4.84 26.6 4.48 
4577 1526 2 0.527 5.425882276618294 27.35695032726366 4.48 
4578 1526 2 0.527 5.425882276618294 25.843049672736342 4.48 
4579 1527 1 -1.054 20.16 28.119999999999997 29.96 
4580 1527 2 0.527 20.745882276618296 28.87695032726366 29.96 
4581 1527 2 0.527 20.745882276618296 27.363049672736338 29.96 
4582 1528 1 -1.054 4.24 30.44 36.92 
4583 1528 2 0.527 4.8258822766182945 31.19695032726366 36.92 
4584 1528 2 0.527 4.8258822766182945 29.683049672736338 36.92 
4585 1529 1 -1.054 11.559999999999999 10.56 11.959999999999999 
4586 1529 2 0.527 12.145882276618295 11.316950327263662 11.959999999999999 
4587 1529 2 0.527 12.145882276618295 9.80304967273634 11.959999999999999 
4588 1530 1 -1.054 30.64 11.479999999999999 3.84 
4589 1530 2 0.527 31.225882276618297 12.23695032726366 3.84 
4590 1530 2 0.527 31.225882276618297 10.723049672736337 3.84 
4591 1531 1 -1.054 35.96 10.16 20.240000000000002 
4592 1531 2 0.527 36.5458822766183 10.916950327263661 20.240000000000002 
4593 1531 2 0.527 36.5458822766183 9.403049672736339 20.240000000000002 
4594 1532 1 -1.054 39.64 22.88 10.120000000000001 
4595 1532 2 0.527 40.22588227661829 23.63695032726366 10.120000000000001 
4596 1532 2 0.527 40.22588227661829 22.123049672736336 10.120000000000001 
4597 1533 1 -1.054 33.96 5.36 19.24 
4598 1533 2 0.527 34.54588227661829 6.116950327263662 19.24 
4599 1533 2 0.527 34.54588227661829 4.603049672736339 19.24 
4600 1534 1 -1.054 12.8 26.880000000000003 36.760000000000005 
4601 1534 2 0.527 13.385882276618295 27.636950327263662 36.760000000000005 
4602 1534 2 0.527 13.385882276618295 26.12304967273634 36.760000000000005 
4603 1535 1 -1.054 20.92 29.28 20.36 
4604 1535 2 0.527 21.505882276618298 30.03695032726366 20.36 
4605 1535 2 0.527 21.505882276618298 28.523049672736338 20.36 
4606 1536 1 -1.054 17.08 25.68 16.04 
4607 1536 2 0.527 17.665882276618294 26.436950327263663 16.04 
4608 1536 2 0.527 17.665882276618294 24.92304967273634 16.04 
4609 1537 1 -1.054 27.72 3.5199999999999996 11.0 
4610 1537 2 0.527 28.305882276618295 4.276950327263661 11.0 
4611 1537 2 0.527 28.305882276618295 2.7630496727363383 11.0 
4612 1538 1 -1.054 22.080000000000002 1.0 1.56 
4613 1538 2 0.527 22.665882276618298 1.756950327263661 1.56 
4614 1538 2 0.527 22.665882276618298 0.2430496727363389 1.56 
4615 1539 1 -1.054 10.120000000000001 36.04 3.4799999999999995 
4616 1539 2 0.527 10.705882276618295 36.79695032726366 3.4799999999999995 
4617 1539 2 0.527 10.705882276618295 35.28304967273634 3.4799999999999995 
4618 1540 1 -1.054 6.959999999999999 37.68 0.08 
4619 1540 2 0.527 7.545882276618294 38.43695032726366 0.08 
4620 1540 2 0.527 7.545882276618294 36.92304967273634 0.08 
4621 1541 1 -1.054 28.599999999999998 32.0 6.44 
4622 1541 2 0.527 29.185882276618294 32.75695032726367 6.44 
4623 1541 2 0.527 29.185882276618294 31.24304967273634 6.44 
4624 1542 1 -1.054 2.08 18.6 13.0 
4625 1542 2 0.527 2.665882276618295 19.35695032726366 13.0 
4626 1542 2 0.527 2.665882276618295 17.84304967273634 13.0 
4627 1543 1 -1.054 7.720000000000001 6.32 26.520000000000003 
4628 1543 2 0.527 8.305882276618295 7.076950327263662 26.520000000000003 
4629 1543 2 0.527 8.305882276618295 5.563049672736339 26.520000000000003 
4630 1544 1 -1.054 15.72 8.2 15.04 
4631 1544 2 0.527 16.305882276618295 8.95695032726366 15.04 
4632 1544 2 0.527 16.305882276618295 7.443049672736338 15.04 
4633 1545 1 -1.054 21.92 13.4 35.6 
4634 1545 2 0.527 22.505882276618298 14.156950327263662 35.6 
4635 1545 2 0.527 22.505882276618298 12.643049672736339 35.6 
4636 1546 1 -1.054 11.84 2.16 27.400000000000002 
4637 1546 2 0.527 12.425882276618294 2.916950327263661 27.400000000000002 
4638 1546 2 0.527 12.425882276618294 1.4030496727363388 27.400000000000002 
4639 1547 1 -1.054 2.84 12.08 23.32 
4640 1547 2 0.527 3.4258822766182946 12.836950327263661 23.32 
4641 1547 2 0.527 3.4258822766182946 11.323049672736339 23.32 
4642 1548 1 -1.054 13.680000000000001 39.519999999999996 19.2 
4643 1548 2 0.527 14.265882276618296 40.27695032726366 19.2 
4644 1548 2 0.527 14.265882276618296 38.76304967273634 19.2 
4645 1549 1 -1.054 25.44 25.96 21.520000000000003 
4646 1549 2 0.527 26.025882276618297 26.71695032726366 21.520000000000003 
4647 1549 2 0.527 26.025882276618297 25.20304967273634 21.520000000000003 
4648 1550 1 -1.054 23.04 31.400000000000002 39.96 
4649 1550 2 0.527 23.625882276618295 32.156950327263665 39.96 
4650 1550 2 0.527 23.625882276618295 30.64304967273634 39.96 
4651 1551 1 -1.054 33.16 17.32 13.200000000000001 
4652 1551 2 0.527 33.745882276618296 18.07695032726366 13.200000000000001 
4653 1551 2 0.527 33.745882276618296 16.563049672736337 13.200000000000001 
4654 1552 1 -1.054 27.759999999999998 13.440000000000001 6.28 
4655 1552 2 0.527 28.345882276618294 14.196950327263663 6.28 
4656 1552 2 0.527 28.345882276618294 12.68304967273634 6.28 
4657 1553 1 -1.054 10.280000000000001 15.52 25.2 
4658 1553 2 0.527 10.865882276618295 16.276950327263663 25.2 
4659 1553 2 0.527 10.865882276618295 14.76304967273634 25.2 
4660 1554 1 -1.054 5.6000000000000005 14.719999999999999 1.44 
4661 1554 2 0.527 6.185882276618296 15.476950327263662 1.44 
4662 1554 2 0.527 6.185882276618296 13.96304967273634 1.44 
4663 1555 1 -1.054 19.64 16.240000000000002 37.76 
4664 1555 2 0.527 20.225882276618297 16.99695032726366 37.76 
4665 1555 2 0.527 20.225882276618297 15.483049672736339 37.76 
4666 1556 1 -1.054 4.32 28.119999999999997 14.239999999999998 
4667 1556 2 0.527 4.905882276618295 28.87695032726366 14.239999999999998 
4668 1556 2 0.527 4.905882276618295 27.363049672736338 14.239999999999998 
4669 1557 1 -1.054 21.76 4.36 21.080000000000002 
4670 1557 2 0.527 22.345882276618298 5.116950327263661 21.080000000000002 
4671 1557 2 0.527 22.345882276618298 3.6030496727363386 21.080000000000002 
4672 1558 1 -1.054 26.520000000000003 18.32 30.8 
4673 1558 2 0.527 27.1058822766183 19.076950327263663 30.8 
4674 1558 2 0.527 27.1058822766183 17.56304967273634 30.8 
4675 1559 1 -1.054 21.96 14.239999999999998 0.2 
4676 1559 2 0.527 22.5458822766183 14.996950327263662 0.2 
4677 1559 2 0.527 22.5458822766183 13.483049672736339 0.2 
4678 1560 1 -1.054 2.0 9.559999999999999 21.64 
4679 1560 2 0.527 2.5858822766182947 10.316950327263662 21.64 
4680 1560 2 0.527 2.5858822766182947 8.80304967273634 21.64 
4681 1561 1 -1.054 14.12 7.279999999999999 22.639999999999997 
4682 1561 2 0.527 14.705882276618294 8.03695032726366 22.639999999999997 
4683 1561 2 0.527 14.705882276618294 6.523049672736338 22.639999999999997 
4684 1562 1 -1.054 5.5600000000000005 13.64 20.560000000000002 
4685 1562 2 0.527 6.145882276618295 14.396950327263662 20.560000000000002 
4686 1562 2 0.527 6.145882276618295 12.88304967273634 20.560000000000002 
4687 1563 1 -1.054 6.32 20.92 25.44 
4688 1563 2 0.527 6.905882276618295 21.67695032726366 25.44 
4689 1563 2 0.527 6.905882276618295 20.16304967273634 25.44 
4690 1564 1 -1.054 7.08 2.12 29.92 
4691 1564 2 0.527 7.665882276618294 2.876950327263661 29.92 
4692 1564 2 0.527 7.665882276618294 1.3630496727363388 29.92 
4693 1565 1 -1.054 31.48 30.12 34.84 
4694 1565 2 0.527 32.0658822766183 30.87695032726366 34.84 
4695 1565 2 0.527 32.0658822766183 29.363049672736338 34.84 
4696 1566 1 -1.054 36.760000000000005 36.52 28.599999999999998 
4697 1566 2 0.527 37.3458822766183 37.27695032726366 28.599999999999998 
4698 1566 2 0.527 37.3458822766183 35.763049672736344 28.599999999999998 
4699 1567 1 -1.054 21.48 22.240000000000002 1.88 
4700 1567 2 0.527 22.065882276618296 22.99695032726366 1.88 
4701 1567 2 0.527 22.065882276618296 21.483049672736342 1.88 
4702 1568 1 -1.054 35.480000000000004 0.04 29.24 
4703 1568 2 0.527 36.0658822766183 0.7969503272636612 29.24 
4704 1568 2 0.527 36.0658822766183 -0.7169503272636611 29.24 
4705 1569 1 -1.054 13.16 18.080000000000002 38.08 
4706 1569 2 0.527 13.745882276618296 18.83695032726366 38.08 
4707 1569 2 0.527 13.745882276618296 17.32304967273634 38.08 
4708 1570 1 -1.054 38.839999999999996 34.04 31.16 
4709 1570 2 0.527 39.425882276618296 34.79695032726366 31.16 
4710 1570 2 0.527 39.425882276618296 33.28304967273634 31.16 
4711 1571 1 -1.054 38.44 12.68 28.24 
4712 1571 2 0.527 39.0258822766183 13.436950327263661 28.24 
4713 1571 2 0.527 39.0258822766183 11.923049672736338 28.24 
4714 1572 1 -1.054 30.72 28.56 21.0 
4715 1572 2 0.527 31.3058822766183 29.316950327263662 21.0 
4716 1572 2 0.527 31.3058822766183 27.803049672736336 21.0 
4717 1573 1 -1.054 29.0 26.92 25.96 
4718 1573 2 0.527 29.585882276618296 27.67695032726366 25.96 
4719 1573 2 0.527 29.585882276618296 26.163049672736342 25.96 
4720 1574 1 -1.054 21.6 28.24 13.0 
4721 1574 2 0.527 22.185882276618297 28.99695032726366 13.0 
4722 1574 2 0.527 22.185882276618297 27.483049672736335 13.0 
4723 1575 1 -1.054 11.16 35.44 33.96 
4724 1575 2 0.527 11.745882276618296 36.196950327263664 33.96 
4725 1575 2 0.527 11.745882276618296 34.68304967273634 33.96 
4726 1576 1 -1.054 20.16 9.360000000000001 8.88 
4727 1576 2 0.527 20.745882276618296 10.11695032726366 8.88 
4728 1576 2 0.527 20.745882276618296 8.60304967273634 8.88 
4729 1577 1 -1.054 17.32 26.64 25.64 
4730 1577 2 0.527 17.905882276618293 27.396950327263664 25.64 
4731 1577 2 0.527 17.905882276618293 25.88304967273634 25.64 
4732 1578 1 -1.054 28.4 33.239999999999995 29.4 
4733 1578 2 0.527 28.985882276618295 33.99695032726366 29.4 
4734 1578 2 0.527 28.985882276618295 32.483049672736335 29.4 
4735 1579 1 -1.054 4.680000000000001 24.6 16.919999999999998 
4736 1579 2 0.527 5.265882276618296 25.35695032726366 16.919999999999998 
4737 1579 2 0.527 5.265882276618296 23.84304967273634 16.919999999999998 
4738 1580 1 -1.054 9.64 26.080000000000002 15.440000000000001 
4739 1580 2 0.527 10.225882276618295 26.83695032726366 15.440000000000001 
4740 1580 2 0.527 10.225882276618295 25.32304967273634 15.440000000000001 
4741 1581 1 -1.054 36.800000000000004 5.96 33.239999999999995 
4742 1581 2 0.527 37.3858822766183 6.716950327263661 33.239999999999995 
4743 1581 2 0.527 37.3858822766183 5.203049672736339 33.239999999999995 
4744 1582 1 -1.054 31.36 36.04 10.16 
4745 1582 2 0.527 31.9458822766183 36.79695032726366 10.16 
4746 1582 2 0.527 31.9458822766183 35.28304967273634 10.16 
4747 1583 1 -1.054 15.440000000000001 34.56 1.48 
4748 1583 2 0.527 16.025882276618294 35.31695032726366 1.48 
4749 1583 2 0.527 16.025882276618294 33.803049672736336 1.48 
4750 1584 1 -1.054 24.48 16.88 35.96 
4751 1584 2 0.527 25.065882276618296 17.636950327263662 35.96 
4752 1584 2 0.527 25.065882276618296 16.12304967273634 35.96 
4753 1585 1 -1.054 35.0 21.560000000000002 12.8 
4754 1585 2 0.527 35.5858822766183 22.316950327263662 12.8 
4755 1585 2 0.527 35.5858822766183 20.80304967273634 12.8 
4756 1586 1 -1.054 36.84 31.16 15.88 
4757 1586 2 0.527 37.425882276618296 31.916950327263663 15.88 
4758 1586 2 0.527 37.425882276618296 30.40304967273634 15.88 
4759 1587 1 -1.054 12.92 39.56 38.28 
4760 1587 2 0.527 13.505882276618294 40.316950327263655 38.28 
4761 1587 2 0.527 13.505882276618294 38.803049672736336 38.28 
4762 1588 1 -1.054 35.92 1.04 38.56 
4763 1588 2 0.527 36.505882276618294 1.796950327263661 38.56 
4764 1588 2 0.527 36.505882276618294 0.2830496727363388 38.56 
4765 1589 1 -1.054 30.28 30.48 30.36 
4766 1589 2 0.527 30.865882276618297 31.236950327263663 30.36 
4767 1589 2 0.527 30.865882276618297 29.723049672736337 30.36 
4768 1590 1 -1.054 17.8 25.04 2.8000000000000003 
4769 1590 2 0.527 18.385882276618297 25.796950327263662 2.8000000000000003 
4770 1590 2 0.527 18.385882276618297 24.28304967273634 2.8000000000000003 
4771 1591 1 -1.054 32.879999999999995 31.12 16.84 
4772 1591 2 0.527 33.465882276618295 31.876950327263664 16.84 
4773 1591 2 0.527 33.465882276618295 30.363049672736338 16.84 
4774 1592 1 -1.054 26.36 20.6 2.44 
4775 1592 2 0.527 26.9458822766183 21.35695032726366 2.44 
4776 1592 2 0.527 26.9458822766183 19.84304967273634 2.44 
4777 1593 1 -1.054 27.68 3.6799999999999997 5.04 
4778 1593 2 0.527 28.265882276618296 4.436950327263661 5.04 
4779 1593 2 0.527 28.265882276618296 2.9230496727363384 5.04 
4780 1594 1 -1.054 10.84 9.84 23.24 
4781 1594 2 0.527 11.425882276618296 10.596950327263661 23.24 
4782 1594 2 0.527 11.425882276618296 9.083049672736339 23.24 
4783 1595 1 -1.054 26.04 24.84 11.559999999999999 
4784 1595 2 0.527 26.6258822766183 25.596950327263663 11.559999999999999 
4785 1595 2 0.527 26.6258822766183 24.083049672736337 11.559999999999999 
4786 1596 1 -1.054 3.4000000000000004 1.12 25.52 
4787 1596 2 0.527 3.985882276618295 1.8769503272636612 25.52 
4788 1596 2 0.527 3.985882276618295 0.36304967273633887 25.52 
4789 1597 1 -1.054 9.559999999999999 28.56 34.56 
4790 1597 2 0.527 10.145882276618295 29.316950327263662 34.56 
4791 1597 2 0.527 10.145882276618295 27.803049672736336 34.56 
4792 1598 1 -1.054 22.240000000000002 21.04 12.24 
4793 1598 2 0.527 22.825882276618298 21.796950327263662 12.24 
4794 1598 2 0.527 22.825882276618298 20.28304967273634 12.24 
4795 1599 1 -1.054 16.439999999999998 32.599999999999994 18.0 
4796 1599 2 0.527 17.025882276618294 33.35695032726366 18.0 
4797 1599 2 0.527 17.025882276618294 31.843049672736335 18.0 
4798 1600 1 -1.054 0.6 31.04 9.52 
4799 1600 2 0.527 1.185882276618295 31.796950327263662 9.52 
4800 1600 2 0.527 1.185882276618295 30.28304967273634 9.52 
4801 1601 1 -1.054 10.56 5.32 32.400000000000006 
4802 1601 2 0.527 11.145882276618295 6.076950327263662 32.400000000000006 
4803 1601 2 0.527 11.145882276618295 4.563049672736339 32.400000000000006 
4804 1602 1 -1.054 36.44 18.400000000000002 5.28 
4805 1602 2 0.527 37.0258822766183 19.15695032726366 5.28 
4806 1602 2 0.527 37.0258822766183 17.64304967273634 5.28 
4807 1603 1 -1.054 21.76 38.0 25.880000000000003 
4808 1603 2 0.527 22.345882276618298 38.75695032726366 25.880000000000003 
4809 1603 2 0.527 22.345882276618298 37.24304967273633 25.880000000000003 
4810 1604 1 -1.054 16.200000000000003 31.720000000000002 11.28 
4811 1604 2 0.527 16.785882276618295 32.476950327263665 11.28 
4812 1604 2 0.527 16.785882276618295 30.96304967273634 11.28 
4813 1605 1 -1.054 18.32 32.120000000000005 34.4 
4814 1605 2 0.527 18.905882276618296 32.876950327263664 34.4 
4815 1605 2 0.527 18.905882276618296 31.36304967273634 34.4 
4816 1606 1 -1.054 33.0 26.12 27.799999999999997 
4817 1606 2 0.527 33.58588227661829 26.876950327263664 27.799999999999997 
4818 1606 2 0.527 33.58588227661829 25.363049672736338 27.799999999999997 
4819 1607 1 -1.054 15.2 28.4 30.64 
4820 1607 2 0.527 15.785882276618295 29.156950327263658 30.64 
4821 1607 2 0.527 15.785882276618295 27.64304967273634 30.64 
4822 1608 1 -1.054 14.76 30.16 17.32 
4823 1608 2 0.527 15.345882276618294 30.916950327263663 17.32 
4824 1608 2 0.527 15.345882276618294 29.403049672736337 17.32 
4825 1609 1 -1.054 33.6 25.72 15.36 
4826 1609 2 0.527 34.185882276618294 26.476950327263662 15.36 
4827 1609 2 0.527 34.185882276618294 24.96304967273634 15.36 
4828 1610 1 -1.054 15.72 2.6 35.96 
4829 1610 2 0.527 16.305882276618295 3.3569503272636614 35.96 
4830 1610 2 0.527 16.305882276618295 1.8430496727363388 35.96 
4831 1611 1 -1.054 0.04 8.24 9.200000000000001 
4832 1611 2 0.527 0.6258822766182949 8.996950327263662 9.200000000000001 
4833 1611 2 0.527 0.6258822766182949 7.483049672736338 9.200000000000001 
4834 1612 1 -1.054 11.6 2.44 21.400000000000002 
4835 1612 2 0.527 12.185882276618294 3.1969503272636612 21.400000000000002 
4836 1612 2 0.527 12.185882276618294 1.6830496727363387 21.400000000000002 
4837 1613 1 -1.054 21.04 6.16 31.6 
4838 1613 2 0.527 21.6258822766183 6.916950327263661 31.6 
4839 1613 2 0.527 21.6258822766183 5.403049672736339 31.6 
4840 1614 1 -1.054 36.480000000000004 17.2 35.480000000000004 
4841 1614 2 0.527 37.0658822766183 17.956950327263662 35.480000000000004 
4842 1614 2 0.527 37.0658822766183 16.44304967273634 35.480000000000004 
4843 1615 1 -1.054 1.8399999999999999 21.96 36.28 
4844 1615 2 0.527 2.425882276618295 22.716950327263664 36.28 
4845 1615 2 0.527 2.425882276618295 21.20304967273634 36.28 
4846 1616 1 -1.054 33.6 15.600000000000001 15.68 
4847 1616 2 0.527 34.185882276618294 16.35695032726366 15.68 
4848 1616 2 0.527 34.185882276618294 14.843049672736338 15.68 
4849 1617 1 -1.054 35.04 33.239999999999995 22.32 
4850 1617 2 0.527 35.6258822766183 33.99695032726366 22.32 
4851 1617 2 0.527 35.6258822766183 32.483049672736335 22.32 
4852 1618 1 -1.054 33.64 13.64 10.920000000000002 
4853 1618 2 0.527 34.22588227661829 14.396950327263662 10.920000000000002 
4854 1618 2 0.527 34.22588227661829 12.88304967273634 10.920000000000002 
4855 1619 1 -1.054 35.16 10.68 2.0 
4856 1619 2 0.527 35.745882276618296 11.436950327263663 2.0 
4857 1619 2 0.527 35.745882276618296 9.92304967273634 2.0 
4858 1620 1 -1.054 30.76 26.8 38.8 
4859 1620 2 0.527 31.345882276618298 27.556950327263664 38.8 
4860 1620 2 0.527 31.345882276618298 26.04304967273634 38.8 
4861 1621 1 -1.054 14.719999999999999 3.3600000000000003 26.68 
4862 1621 2 0.527 15.305882276618295 4.116950327263662 26.68 
4863 1621 2 0.527 15.305882276618295 2.603049672736339 26.68 
4864 1622 1 -1.054 5.6000000000000005 34.32 28.159999999999997 
4865 1622 2 0.527 6.185882276618296 35.07695032726366 28.159999999999997 
4866 1622 2 0.527 6.185882276618296 33.56304967273634 28.159999999999997 
4867 1623 1 -1.054 9.280000000000001 36.160000000000004 10.68 
4868 1623 2 0.527 9.865882276618295 36.91695032726366 10.68 
4869 1623 2 0.527 9.865882276618295 35.40304967273634 10.68 
4870 1624 1 -1.054 29.48 21.44 31.76 
4871 1624 2 0.527 30.065882276618296 22.196950327263664 31.76 
4872 1624 2 0.527 30.065882276618296 20.683049672736338 31.76 
4873 1625 1 -1.054 36.88 4.72 36.96 
4874 1625 2 0.527 37.4658822766183 5.476950327263661 36.96 
4875 1625 2 0.527 37.4658822766183 3.9630496727363385 36.96 
4876 1626 1 -1.054 0.12 4.5600000000000005 21.64 
4877 1626 2 0.527 0.705882276618295 5.316950327263661 21.64 
4878 1626 2 0.527 0.705882276618295 3.8030496727363388 21.64 
4879 1627 1 -1.054 32.0 22.28 36.56 
4880 1627 2 0.527 32.5858822766183 23.036950327263664 36.56 
4881 1627 2 0.527 32.5858822766183 21.52304967273634 36.56 
4882 1628 1 -1.054 3.0 6.32 5.28 
4883 1628 2 0.527 3.5858822766182947 7.076950327263662 5.28 
4884 1628 2 0.527 3.5858822766182947 5.563049672736339 5.28 
4885 1629 1 -1.054 12.92 5.5600000000000005 25.92 
4886 1629 2 0.527 13.505882276618294 6.316950327263662 25.92 
4887 1629 2 0.527 13.505882276618294 4.803049672736339 25.92 
4888 1630 1 -1.054 5.16 12.6 34.64 
4889 1630 2 0.527 5.745882276618294 13.356950327263661 34.64 
4890 1630 2 0.527 5.745882276618294 11.843049672736338 34.64 
4891 1631 1 -1.054 23.2 25.04 21.560000000000002 
4892 1631 2 0.527 23.785882276618295 25.796950327263662 21.560000000000002 
4893 1631 2 0.527 23.785882276618295 24.28304967273634 21.560000000000002 
4894 1632 1 -1.054 35.44 31.32 28.159999999999997 
4895 1632 2 0.527 36.0258822766183 32.07695032726366 28.159999999999997 
4896 1632 2 0.527 36.0258822766183 30.56304967273634 28.159999999999997 
4897 1633 1 -1.054 27.959999999999997 4.5600000000000005 28.439999999999998 
4898 1633 2 0.527 28.545882276618293 5.316950327263661 28.439999999999998 
4899 1633 2 0.527 28.545882276618293 3.8030496727363388 28.439999999999998 
4900 1634 1 -1.054 27.759999999999998 17.04 34.2 
4901 1634 2 0.527 28.345882276618294 17.796950327263662 34.2 
4902 1634 2 0.527 28.345882276618294 16.28304967273634 34.2 
4903 1635 1 -1.054 38.44 12.92 19.28 
4904 1635 2 0.527 39.0258822766183 13.676950327263661 19.28 
4905 1635 2 0.527 39.0258822766183 12.163049672736339 19.28 
4906 1636 1 -1.054 7.4 15.0 26.720000000000002 
4907 1636 2 0.527 7.985882276618295 15.756950327263661 26.720000000000002 
4908 1636 2 0.527 7.985882276618295 14.243049672736339 26.720000000000002 
4909 1637 1 -1.054 36.88 5.5200000000000005 5.48 
4910 1637 2 0.527 37.4658822766183 6.276950327263662 5.48 
4911 1637 2 0.527 37.4658822766183 4.763049672736339 5.48 
4912 1638 1 -1.054 38.16 20.68 29.52 
4913 1638 2 0.527 38.745882276618296 21.436950327263663 29.52 
4914 1638 2 0.527 38.745882276618296 19.92304967273634 29.52 
4915 1639 1 -1.054 10.36 22.68 4.32 
4916 1639 2 0.527 10.945882276618295 23.43695032726366 4.32 
4917 1639 2 0.527 10.945882276618295 21.923049672736337 4.32 
4918 1640 1 -1.054 7.359999999999999 27.360000000000003 27.88 
4919 1640 2 0.527 7.945882276618295 28.116950327263663 27.88 
4920 1640 2 0.527 7.945882276618295 26.60304967273634 27.88 
4921 1641 1 -1.054 32.599999999999994 2.08 14.92 
4922 1641 2 0.527 33.185882276618294 2.836950327263661 14.92 
4923 1641 2 0.527 33.185882276618294 1.3230496727363388 14.92 
4924 1642 1 -1.054 30.72 6.5200000000000005 30.04 
4925 1642 2 0.527 31.3058822766183 7.276950327263662 30.04 
4926 1642 2 0.527 31.3058822766183 5.763049672736339 30.04 
4927 1643 1 -1.054 3.88 23.64 2.7600000000000002 
4928 1643 2 0.527 4.465882276618295 24.39695032726366 2.7600000000000002 
4929 1643 2 0.527 4.465882276618295 22.883049672736337 2.7600000000000002 
4930 1644 1 -1.054 17.92 15.24 19.32 
4931 1644 2 0.527 18.505882276618294 15.996950327263662 19.32 
4932 1644 2 0.527 18.505882276618294 14.483049672736339 19.32 
4933 1645 1 -1.054 4.76 22.919999999999998 5.96 
4934 1645 2 0.527 5.345882276618294 23.67695032726366 5.96 
4935 1645 2 0.527 5.345882276618294 22.163049672736335 5.96 
4936 1646 1 -1.054 30.84 38.64 29.0 
4937 1646 2 0.527 31.425882276618296 39.39695032726366 29.0 
4938 1646 2 0.527 31.425882276618296 37.883049672736334 29.0 
4939 1647 1 -1.054 38.28 12.52 21.68 
4940 1647 2 0.527 38.865882276618294 13.27695032726366 21.68 
4941 1647 2 0.527 38.865882276618294 11.763049672736338 21.68 
4942 1648 1 -1.054 5.4 6.04 19.56 
4943 1648 2 0.527 5.985882276618295 6.796950327263661 19.56 
4944 1648 2 0.527 5.985882276618295 5.283049672736339 19.56 
4945 1649 1 -1.054 7.68 35.56 35.16 
4946 1649 2 0.527 8.265882276618296 36.31695032726366 35.16 
4947 1649 2 0.527 8.265882276618296 34.803049672736336 35.16 
4948 1650 1 -1.054 22.639999999999997 18.0 7.5600000000000005 
4949 1650 2 0.527 23.225882276618293 18.756950327263663 7.5600000000000005 
4950 1650 2 0.527 23.225882276618293 17.24304967273634 7.5600000000000005 
4951 1651 1 -1.054 15.88 8.36 26.840000000000003 
4952 1651 2 0.527 16.465882276618295 9.11695032726366 26.840000000000003 
4953 1651 2 0.527 16.465882276618295 7.603049672736338 26.840000000000003 
4954 1652 1 -1.054 11.52 15.96 17.32 
4955 1652 2 0.527 12.105882276618294 16.71695032726366 17.32 
4956 1652 2 0.527 12.105882276618294 15.20304967273634 17.32 
4957 1653 1 -1.054 32.92 15.64 4.2 
4958 1653 2 0.527 33.505882276618294 16.39695032726366 4.2 
4959 1653 2 0.527 33.505882276618294 14.88304967273634 4.2 
4960 1654 1 -1.054 9.6 37.64 33.08 
4961 1654 2 0.527 10.185882276618294 38.39695032726366 33.08 
4962 1654 2 0.527 10.185882276618294 36.883049672736334 33.08 
4963 1655 1 -1.054 31.560000000000002 25.08 10.8 
4964 1655 2 0.527 32.145882276618295 25.83695032726366 10.8 
4965 1655 2 0.527 32.145882276618295 24.32304967273634 10.8 
4966 1656 1 -1.054 15.56 33.28 26.840000000000003 
4967 1656 2 0.527 16.145882276618295 34.03695032726366 26.840000000000003 
4968 1656 2 0.527 16.145882276618295 32.523049672736335 26.840000000000003 
4969 1657 1 -1.054 13.84 11.559999999999999 7.4 
4970 1657 2 0.527 14.425882276618294 12.31695032726366 7.4 
4971 1657 2 0.527 14.425882276618294 10.803049672736337 7.4 
4972 1658 1 -1.054 0.4 37.400000000000006 6.04 
4973 1658 2 0.527 0.985882276618295 38.156950327263665 6.04 
4974 1658 2 0.527 0.985882276618295 36.64304967273634 6.04 
4975 1659 1 -1.054 25.84 29.119999999999997 17.6 
4976 1659 2 0.527 26.425882276618296 29.87695032726366 17.6 
4977 1659 2 0.527 26.425882276618296 28.363049672736338 17.6 
4978 1660 1 -1.054 23.64 39.0 11.040000000000001 
4979 1660 2 0.527 24.225882276618297 39.75695032726366 11.040000000000001 
4980 1660 2 0.527 24.225882276618297 38.24304967273634 11.040000000000001 
4981 1661 1 -1.054 3.6799999999999997 23.84 19.56 
4982 1661 2 0.527 4.265882276618295 24.59695032726366 19.56 
4983 1661 2 0.527 4.265882276618295 23.083049672736337 19.56 
4984 1662 1 -1.054 39.16 26.36 31.200000000000003 
4985 1662 2 0.527 39.745882276618296 27.116950327263663 31.200000000000003 
4986 1662 2 0.527 39.745882276618296 25.60304967273634 31.200000000000003 
4987 1663 1 -1.054 17.72 6.5200000000000005 12.64 
4988 1663 2 0.527 18.305882276618295 7.276950327263662 12.64 
4989 1663 2 0.527 18.305882276618295 5.763049672736339 12.64 
4990 1664 1 -1.054 30.68 30.32 11.080000000000002 
4991 1664 2 0.527 31.2658822766183 31.07695032726366 11.080000000000002 
4992 1664 2 0.527 31.2658822766183 29.56304967273634 11.080000000000002 
4993 1665 1 -1.054 31.720000000000002 12.52 20.0 
4994 1665 2 0.527 32.3058822766183 13.27695032726366 20.0 
4995 1665 2 0.527 32.3058822766183 11.763049672736338 20.0 
4996 1666 1 -1.054 6.760000000000001 10.0 10.280000000000001 
4997 1666 2 0.527 7.345882276618295 10.756950327263661 10.280000000000001 
4998 1666 2 0.527 7.345882276618295 9.243049672736339 10.280000000000001 
4999 1667 1 -1.054 14.76 15.600000000000001 17.44 
5000 1667 2 0.527 15.345882276618294 16.35695032726366 17.44 
5001 1667 2 0.527 15.345882276618294 14.843049672736338 17.44 
5002 1668 1 -1.054 9.52 15.84 32.28 
5003 1668 2 0.527 10.105882276618294 16.596950327263663 32.28 
5004 1668 2 0.527 10.105882276618294 15.08304967273634 32.28 
5005 1669 1 -1.054 14.36 6.0 35.8 
5006 1669 2 0.527 14.945882276618294 6.756950327263661 35.8 
5007 1669 2 0.527 14.945882276618294 5.243049672736339 35.8 
5008 1670 1 -1.054 3.4799999999999995 10.920000000000002 9.280000000000001 
5009 1670 2 0.527 4.065882276618295 11.676950327263661 9.280000000000001 
5010 1670 2 0.527 4.065882276618295 10.163049672736339 9.280000000000001 
5011 1671 1 -1.054 19.88 3.5599999999999996 14.559999999999999 
5012 1671 2 0.527 20.465882276618295 4.316950327263661 14.559999999999999 
5013 1671 2 0.527 20.465882276618295 2.8030496727363383 14.559999999999999 
5014 1672 1 -1.054 3.04 24.2 29.72 
5015 1672 2 0.527 3.6258822766182948 24.956950327263662 29.72 
5016 1672 2 0.527 3.6258822766182948 23.443049672736336 29.72 
5017 1673 1 -1.054 39.04 10.600000000000001 0.52 
5018 1673 2 0.527 39.6258822766183 11.356950327263661 0.52 
5019 1673 2 0.527 39.6258822766183 9.843049672736338 0.52 
5020 1674 1 -1.054 15.8 39.0 15.600000000000001 
5021 1674 2 0.527 16.385882276618297 39.75695032726366 15.600000000000001 
5022 1674 2 0.527 16.385882276618297 38.24304967273634 15.600000000000001 
5023 1675 1 -1.054 19.6 38.04 15.36 
5024 1675 2 0.527 20.185882276618297 38.79695032726366 15.36 
5025 1675 2 0.527 20.185882276618297 37.28304967273634 15.36 
5026 1676 1 -1.054 21.840000000000003 33.72 32.599999999999994 
5027 1676 2 0.527 22.4258822766183 34.47695032726366 32.599999999999994 
5028 1676 2 0.527 22.4258822766183 32.96304967273634 32.599999999999994 
5029 1677 1 -1.054 29.16 39.88 20.16 
5030 1677 2 0.527 29.745882276618296 40.636950327263655 20.16 
5031 1677 2 0.527 29.745882276618296 39.123049672736336 20.16 
5032 1678 1 -1.054 5.08 6.04 39.16 
5033 1678 2 0.527 5.665882276618294 6.796950327263661 39.16 
5034 1678 2 0.527 5.665882276618294 5.283049672736339 39.16 
5035 1679 1 -1.054 11.399999999999999 7.92 6.0 
5036 1679 2 0.527 11.985882276618295 8.676950327263661 6.0 
5037 1679 2 0.527 11.985882276618295 7.163049672736339 6.0 
5038 1680 1 -1.054 33.8 29.04 28.84 
5039 1680 2 0.527 34.3858822766183 29.79695032726366 28.84 
5040 1680 2 0.527 34.3858822766183 28.28304967273634 28.84 
5041 1681 1 -1.054 33.76 37.120000000000005 24.92 
5042 1681 2 0.527 34.3458822766183 37.876950327263664 24.92 
5043 1681 2 0.527 34.3458822766183 36.36304967273634 24.92 
5044 1682 1 -1.054 8.48 26.0 33.12 
5045 1682 2 0.527 9.065882276618295 26.756950327263663 33.12 
5046 1682 2 0.527 9.065882276618295 25.24304967273634 33.12 
5047 1683 1 -1.054 15.760000000000002 36.64 38.199999999999996 
5048 1683 2 0.527 16.345882276618294 37.39695032726366 38.199999999999996 
5049 1683 2 0.527 16.345882276618294 35.88304967273634 38.199999999999996 
5050 1684 1 -1.054 38.8 25.16 16.84 
5051 1684 2 0.527 39.3858822766183 25.916950327263663 16.84 
5052 1684 2 0.527 39.3858822766183 24.403049672736337 16.84 
5053 1685 1 -1.054 32.96 36.160000000000004 0.56 
5054 1685 2 0.527 33.54588227661829 36.91695032726366 0.56 
5055 1685 2 0.527 33.54588227661829 35.40304967273634 0.56 
5056 1686 1 -1.054 0.48 2.7600000000000002 17.52 
5057 1686 2 0.527 1.065882276618295 3.5169503272636615 17.52 
5058 1686 2 0.527 1.065882276618295 2.003049672736339 17.52 
5059 1687 1 -1.054 38.28 9.24 4.8 
5060 1687 2 0.527 38.865882276618294 9.996950327263662 4.8 
5061 1687 2 0.527 38.865882276618294 8.483049672736339 4.8 
5062 1688 1 -1.054 13.64 0.28 34.8 
5063 1688 2 0.527 14.225882276618297 1.036950327263661 34.8 
5064 1688 2 0.527 14.225882276618297 -0.47695032726366116 34.8 
5065 1689 1 -1.054 38.76 12.28 11.959999999999999 
5066 1689 2 0.527 39.3458822766183 13.03695032726366 11.959999999999999 
5067 1689 2 0.527 39.3458822766183 11.523049672736338 11.959999999999999 
5068 1690 1 -1.054 8.36 17.04 36.6 
5069 1690 2 0.527 8.945882276618294 17.796950327263662 36.6 
5070 1690 2 0.527 8.945882276618294 16.28304967273634 36.6 
5071 1691 1 -1.054 27.400000000000002 3.0 31.04 
5072 1691 2 0.527 27.985882276618298 3.7569503272636613 31.04 
5073 1691 2 0.527 27.985882276618298 2.2430496727363387 31.04 
5074 1692 1 -1.054 13.520000000000001 17.72 32.68 
5075 1692 2 0.527 14.105882276618296 18.476950327263662 32.68 
5076 1692 2 0.527 14.105882276618296 16.96304967273634 32.68 
5077 1693 1 -1.054 30.96 32.8 26.240000000000002 
5078 1693 2 0.527 31.545882276618297 33.55695032726366 26.240000000000002 
5079 1693 2 0.527 31.545882276618297 32.04304967273634 26.240000000000002 
5080 1694 1 -1.054 20.0 20.04 34.56 
5081 1694 2 0.527 20.585882276618296 20.796950327263662 34.56 
5082 1694 2 0.527 20.585882276618296 19.28304967273634 34.56 
5083 1695 1 -1.054 31.16 16.759999999999998 28.84 
5084 1695 2 0.527 31.745882276618296 17.51695032726366 28.84 
5085 1695 2 0.527 31.745882276618296 16.00304967273634 28.84 
5086 1696 1 -1.054 14.76 12.76 19.4 
5087 1696 2 0.527 15.345882276618294 13.516950327263661 19.4 
5088 1696 2 0.527 15.345882276618294 12.003049672736338 19.4 
5089 1697 1 -1.054 28.0 23.88 6.36 
5090 1697 2 0.527 28.585882276618296 24.636950327263662 6.36 
5091 1697 2 0.527 28.585882276618296 23.123049672736336 6.36 
5092 1698 1 -1.054 1.36 2.96 8.44 
5093 1698 2 0.527 1.945882276618295 3.7169503272636613 8.44 
5094 1698 2 0.527 1.945882276618295 2.2030496727363387 8.44 
5095 1699 1 -1.054 10.96 15.120000000000001 6.44 
5096 1699 2 0.527 11.545882276618295 15.87695032726366 6.44 
5097 1699 2 0.527 11.545882276618295 14.363049672736338 6.44 
5098 1700 1 -1.054 37.480000000000004 33.72 12.52 
5099 1700 2 0.527 38.0658822766183 34.47695032726366 12.52 
5100 1700 2 0.527 38.0658822766183 32.96304967273634 12.52 
5101 1701 1 -1.054 15.440000000000001 33.68 34.92 
5102 1701 2 0.527 16.025882276618294 34.43695032726366 34.92 
5103 1701 2 0.527 16.025882276618294 32.92304967273634 34.92 
5104 1702 1 -1.054 15.600000000000001 19.759999999999998 4.4 
5105 1702 2 0.527 16.185882276618294 20.51695032726366 4.4 
5106 1702 2 0.527 16.185882276618294 19.00304967273634 4.4 
5107 1703 1 -1.054 33.199999999999996 16.64 30.880000000000003 
5108 1703 2 0.527 33.785882276618295 17.39695032726366 30.880000000000003 
5109 1703 2 0.527 33.785882276618295 15.883049672736337 30.880000000000003 
5110 1704 1 -1.054 7.32 4.24 11.16 
5111 1704 2 0.527 7.905882276618295 4.9969503272636615 11.16 
5112 1704 2 0.527 7.905882276618295 3.4830496727363385 11.16 
5113 1705 1 -1.054 23.88 23.4 36.88 
5114 1705 2 0.527 24.465882276618295 24.156950327263658 36.88 
5115 1705 2 0.527 24.465882276618295 22.64304967273634 36.88 
5116 1706 1 -1.054 31.44 26.04 2.0 
5117 1706 2 0.527 32.0258822766183 26.796950327263662 2.0 
5118 1706 2 0.527 32.0258822766183 25.28304967273634 2.0 
5119 1707 1 -1.054 30.16 19.36 16.72 
5120 1707 2 0.527 30.745882276618296 20.11695032726366 16.72 
5121 1707 2 0.527 30.745882276618296 18.60304967273634 16.72 
5122 1708 1 -1.054 1.28 33.04 20.4 
5123 1708 2 0.527 1.865882276618295 33.79695032726366 20.4 
5124 1708 2 0.527 1.865882276618295 32.28304967273634 20.4 
5125 1709 1 -1.054 33.72 36.6 37.559999999999995 
5126 1709 2 0.527 34.3058822766183 37.35695032726366 37.559999999999995 
5127 1709 2 0.527 34.3058822766183 35.84304967273634 37.559999999999995 
5128 1710 1 -1.054 13.72 31.880000000000003 14.719999999999999 
5129 1710 2 0.527 14.305882276618295 32.63695032726366 14.719999999999999 
5130 1710 2 0.527 14.305882276618295 31.12304967273634 14.719999999999999 
5131 1711 1 -1.054 35.72 30.64 38.519999999999996 
5132 1711 2 0.527 36.3058822766183 31.39695032726366 38.519999999999996 
5133 1711 2 0.527 36.3058822766183 29.88304967273634 38.519999999999996 
5134 1712 1 -1.054 23.479999999999997 35.2 27.639999999999997 
5135 1712 2 0.527 24.065882276618296 35.95695032726366 27.639999999999997 
5136 1712 2 0.527 24.065882276618296 34.443049672736336 27.639999999999997 
5137 1713 1 -1.054 2.64 9.76 37.599999999999994 
5138 1713 2 0.527 3.225882276618295 10.516950327263661 37.599999999999994 
5139 1713 2 0.527 3.225882276618295 9.003049672736338 37.599999999999994 
5140 1714 1 -1.054 28.919999999999998 28.56 31.44 
5141 1714 2 0.527 29.505882276618294 29.316950327263662 31.44 
5142 1714 2 0.527 29.505882276618294 27.803049672736336 31.44 
5143 1715 1 -1.054 13.0 17.64 26.96 
5144 1715 2 0.527 13.585882276618296 18.39695032726366 26.96 
5145 1715 2 0.527 13.585882276618296 16.883049672736337 26.96 
5146 1716 1 -1.054 28.84 12.36 13.360000000000001 
5147 1716 2 0.527 29.425882276618296 13.11695032726366 13.360000000000001 
5148 1716 2 0.527 29.425882276618296 11.603049672736338 13.360000000000001 
5149 1717 1 -1.054 18.560000000000002 12.76 28.36 
5150 1717 2 0.527 19.145882276618295 13.516950327263661 28.36 
5151 1717 2 0.527 19.145882276618295 12.003049672736338 28.36 
5152 1718 1 -1.054 35.08 23.56 3.3200000000000003 
5153 1718 2 0.527 35.6658822766183 24.316950327263662 3.3200000000000003 
5154 1718 2 0.527 35.6658822766183 22.803049672736336 3.3200000000000003 
5155 1719 1 -1.054 3.24 8.4 15.68 
5156 1719 2 0.527 3.825882276618295 9.156950327263662 15.68 
5157 1719 2 0.527 3.825882276618295 7.643049672736338 15.68 
5158 1720 1 -1.054 13.32 21.16 0.68 
5159 1720 2 0.527 13.905882276618296 21.916950327263663 0.68 
5160 1720 2 0.527 13.905882276618296 20.40304967273634 0.68 
5161 1721 1 -1.054 32.519999999999996 12.28 7.199999999999999 
5162 1721 2 0.527 33.105882276618296 13.03695032726366 7.199999999999999 
5163 1721 2 0.527 33.105882276618296 11.523049672736338 7.199999999999999 
5164 1722 1 -1.054 21.44 13.280000000000001 27.360000000000003 
5165 1722 2 0.527 22.025882276618297 14.036950327263662 27.360000000000003 
5166 1722 2 0.527 22.025882276618297 12.52304967273634 27.360000000000003 
5167 1723 1 -1.054 11.639999999999999 23.0 36.44 
5168 1723 2 0.527 12.225882276618293 23.75695032726366 36.44 
5169 1723 2 0.527 12.225882276618293 22.243049672736337 36.44 
5170 1724 1 -1.054 27.959999999999997 29.68 34.4 
5171 1724 2 0.527 28.545882276618293 30.43695032726366 34.4 
5172 1724 2 0.527 28.545882276618293 28.92304967273634 34.4 
5173 1725 1 -1.054 10.760000000000002 35.84 24.68 
5174 1725 2 0.527 11.345882276618296 36.59695032726366 24.68 
5175 1725 2 0.527 11.345882276618296 35.08304967273634 24.68 
5176 1726 1 -1.054 37.480000000000004 32.440000000000005 2.8000000000000003 
5177 1726 2 0.527 38.0658822766183 33.196950327263664 2.8000000000000003 
5178 1726 2 0.527 38.0658822766183 31.68304967273634 2.8000000000000003 
5179 1727 1 -1.054 32.8 38.48 27.0 
5180 1727 2 0.527 33.3858822766183 39.236950327263656 27.0 
5181 1727 2 0.527 33.3858822766183 37.72304967273634 27.0 
5182 1728 1 -1.054 14.399999999999999 7.0 38.16 
5183 1728 2 0.527 14.985882276618295 7.756950327263661 38.16 
5184 1728 2 0.527 14.985882276618295 6.243049672736339 38.16 
5185 1729 1 -1.054 37.160000000000004 30.52 33.76 
5186 1729 2 0.527 37.745882276618296 31.276950327263663 33.76 
5187 1729 2 0.527 37.745882276618296 29.76304967273634 33.76 
5188 1730 1 -1.054 7.199999999999999 16.52 10.84 
5189 1730 2 0.527 7.7858822766182945 17.27695032726366 10.84 
5190 1730 2 0.527 7.7858822766182945 15.763049672736338 10.84 
5191 1731 1 -1.054 12.12 8.120000000000001 39.6 
5192 1731 2 0.527 12.705882276618294 8.876950327263662 39.6 
5193 1731 2 0.527 12.705882276618294 7.36304967273634 39.6 
5194 1732 1 -1.054 26.200000000000003 10.920000000000002 21.840000000000003 
5195 1732 2 0.527 26.7858822766183 11.676950327263661 21.840000000000003 
5196 1732 2 0.527 26.7858822766183 10.163049672736339 21.840000000000003 
5197 1733 1 -1.054 15.920000000000002 8.44 30.44 
5198 1733 2 0.527 16.505882276618294 9.19695032726366 30.44 
5199 1733 2 0.527 16.505882276618294 7.683049672736338 30.44 
5200 1734 1 -1.054 38.04 23.2 19.48 
5201 1734 2 0.527 38.6258822766183 23.95695032726366 19.48 
5202 1734 2 0.527 38.6258822766183 22.443049672736336 19.48 
5203 1735 1 -1.054 27.959999999999997 11.84 28.88 
5204 1735 2 0.527 28.545882276618293 12.596950327263661 28.88 
5205 1735 2 0.527 28.545882276618293 11.083049672736339 28.88 
5206 1736 1 -1.054 2.96 36.96 11.080000000000002 
5207 1736 2 0.527 3.5458822766182947 37.71695032726366 11.080000000000002 
5208 1736 2 0.527 3.5458822766182947 36.20304967273634 11.080000000000002 
5209 1737 1 -1.054 31.6 33.76 6.32 
5210 1737 2 0.527 32.1858822766183 34.51695032726366 6.32 
5211 1737 2 0.527 32.1858822766183 33.00304967273634 6.32 
5212 1738 1 -1.054 27.360000000000003 34.4 6.760000000000001 
5213 1738 2 0.527 27.9458822766183 35.15695032726366 6.760000000000001 
5214 1738 2 0.527 27.9458822766183 33.64304967273634 6.760000000000001 
5215 1739 1 -1.054 26.16 38.16 12.84 
5216 1739 2 0.527 26.745882276618296 38.91695032726366 12.84 
5217 1739 2 0.527 26.745882276618296 37.40304967273634 12.84 
5218 1740 1 -1.054 22.639999999999997 38.239999999999995 36.4 
5219 1740 2 0.527 23.225882276618293 38.99695032726366 36.4 
5220 1740 2 0.527 23.225882276618293 37.483049672736335 36.4 
5221 1741 1 -1.054 38.76 19.84 20.28 
5222 1741 2 0.527 39.3458822766183 20.596950327263663 20.28 
5223 1741 2 0.527 39.3458822766183 19.083049672736337 20.28 
5224 1742 1 -1.054 34.92 5.5200000000000005 34.88 
5225 1742 2 0.527 35.505882276618294 6.276950327263662 34.88 
5226 1742 2 0.527 35.505882276618294 4.763049672736339 34.88 
5227 1743 1 -1.054 4.28 29.84 22.799999999999997 
5228 1743 2 0.527 4.8658822766182945 30.596950327263663 22.799999999999997 
5229 1743 2 0.527 4.8658822766182945 29.083049672736337 22.799999999999997 
5230 1744 1 -1.054 36.96 9.96 32.72 
5231 1744 2 0.527 37.5458822766183 10.71695032726366 32.72 
5232 1744 2 0.527 37.5458822766183 9.203049672736338 32.72 
5233 1745 1 -1.054 1.08 35.72 38.04 
5234 1745 2 0.527 1.6658822766182948 36.476950327263665 38.04 
5235 1745 2 0.527 1.6658822766182948 34.96304967273634 38.04 
5236 1746 1 -1.054 29.92 8.68 31.92 
5237 1746 2 0.527 30.505882276618298 9.436950327263661 31.92 
5238 1746 2 0.527 30.505882276618298 7.923049672736338 31.92 
5239 1747 1 -1.054 6.640000000000001 23.04 39.4 
5240 1747 2 0.527 7.225882276618295 23.79695032726366 39.4 
5241 1747 2 0.527 7.225882276618295 22.283049672736336 39.4 
5242 1748 1 -1.054 19.32 26.48 23.279999999999998 
5243 1748 2 0.527 19.905882276618293 27.236950327263663 23.279999999999998 
5244 1748 2 0.527 19.905882276618293 25.72304967273634 23.279999999999998 
5245 1749 1 -1.054 19.72 39.68 21.8 
5246 1749 2 0.527 20.3058822766183 40.43695032726366 21.8 
5247 1749 2 0.527 20.3058822766183 38.92304967273634 21.8 
5248 1750 1 -1.054 9.68 37.0 22.040000000000003 
5249 1750 2 0.527 10.265882276618294 37.75695032726367 22.040000000000003 
5250 1750 2 0.527 10.265882276618294 36.24304967273634 22.040000000000003 
5251 1751 1 -1.054 34.44 14.8 24.759999999999998 
5252 1751 2 0.527 35.0258822766183 15.55695032726366 24.759999999999998 
5253 1751 2 0.527 35.0258822766183 14.043049672736338 24.759999999999998 
5254 1752 1 -1.054 34.519999999999996 29.6 23.479999999999997 
5255 1752 2 0.527 35.105882276618296 30.35695032726366 23.479999999999997 
5256 1752 2 0.527 35.105882276618296 28.84304967273634 23.479999999999997 
5257 1753 1 -1.054 12.28 11.319999999999999 15.72 
5258 1753 2 0.527 12.865882276618294 12.07695032726366 15.72 
5259 1753 2 0.527 12.865882276618294 10.563049672736337 15.72 
5260 1754 1 -1.054 4.08 29.68 20.240000000000002 
5261 1754 2 0.527 4.665882276618294 30.43695032726366 20.240000000000002 
5262 1754 2 0.527 4.665882276618294 28.92304967273634 20.240000000000002 
5263 1755 1 -1.054 15.56 23.919999999999998 13.64 
5264 1755 2 0.527 16.145882276618295 24.67695032726366 13.64 
5265 1755 2 0.527 16.145882276618295 23.16304967273634 13.64 
5266 1756 1 -1.054 25.12 22.480000000000004 31.8 
5267 1756 2 0.527 25.705882276618297 23.236950327263663 31.8 
5268 1756 2 0.527 25.705882276618297 21.72304967273634 31.8 
5269 1757 1 -1.054 19.759999999999998 15.56 2.84 
5270 1757 2 0.527 20.345882276618298 16.316950327263662 2.84 
5271 1757 2 0.527 20.345882276618298 14.80304967273634 2.84 
5272 1758 1 -1.054 13.040000000000001 38.4 16.52 
5273 1758 2 0.527 13.625882276618295 39.15695032726366 16.52 
5274 1758 2 0.527 13.625882276618295 37.64304967273634 16.52 
5275 1759 1 -1.054 25.240000000000002 26.36 18.6 
5276 1759 2 0.527 25.825882276618298 27.116950327263663 18.6 
5277 1759 2 0.527 25.825882276618298 25.60304967273634 18.6 
5278 1760 1 -1.054 17.92 2.88 31.64 
5279 1760 2 0.527 18.505882276618294 3.636950327263661 31.64 
5280 1760 2 0.527 18.505882276618294 2.1230496727363386 31.64 
5281 1761 1 -1.054 1.8399999999999999 34.68 23.96 
5282 1761 2 0.527 2.425882276618295 35.43695032726366 23.96 
5283 1761 2 0.527 2.425882276618295 33.92304967273634 23.96 
5284 1762 1 -1.054 0.8400000000000001 5.04 24.439999999999998 
5285 1762 2 0.527 1.425882276618295 5.796950327263661 24.439999999999998 
5286 1762 2 0.527 1.425882276618295 4.283049672736339 24.439999999999998 
5287 1763 1 -1.054 18.16 8.16 35.32 
5288 1763 2 0.527 18.745882276618296 8.916950327263661 35.32 
5289 1763 2 0.527 18.745882276618296 7.403049672736338 35.32 
5290 1764 1 -1.054 1.6800000000000002 24.64 24.84 
5291 1764 2 0.527 2.265882276618295 25.39695032726366 24.84 
5292 1764 2 0.527 2.265882276618295 23.883049672736337 24.84 
5293 1765 1 -1.054 10.52 17.76 0.72 
5294 1765 2 0.527 11.105882276618296 18.51695032726366 0.72 
5295 1765 2 0.527 11.105882276618296 17.00304967273634 0.72 
5296 1766 1 -1.054 11.559999999999999 0.8400000000000001 33.199999999999996 
5297 1766 2 0.527 12.145882276618295 1.5969503272636612 33.199999999999996 
5298 1766 2 0.527 12.145882276618295 0.0830496727363389 33.199999999999996 
5299 1767 1 -1.054 15.280000000000001 17.68 21.44 
5300 1767 2 0.527 15.865882276618295 18.436950327263663 21.44 
5301 1767 2 0.527 15.865882276618295 16.92304967273634 21.44 
5302 1768 1 -1.054 10.760000000000002 0.8400000000000001 23.36 
5303 1768 2 0.527 11.345882276618296 1.5969503272636612 23.36 
5304 1768 2 0.527 11.345882276618296 0.0830496727363389 23.36 
5305 1769 1 -1.054 30.84 2.16 25.0 
5306 1769 2 0.527 31.425882276618296 2.916950327263661 25.0 
5307 1769 2 0.527 31.425882276618296 1.4030496727363388 25.0 
5308 1770 1 -1.054 23.84 3.2 9.44 
5309 1770 2 0.527 24.425882276618296 3.9569503272636615 9.44 
5310 1770 2 0.527 24.425882276618296 2.443049672736339 9.44 
5311 1771 1 -1.054 1.6 15.920000000000002 38.6 
5312 1771 2 0.527 2.185882276618295 16.67695032726366 38.6 
5313 1771 2 0.527 2.185882276618295 15.163049672736339 38.6 
5314 1772 1 -1.054 15.120000000000001 24.56 6.2 
5315 1772 2 0.527 15.705882276618295 25.316950327263662 6.2 
5316 1772 2 0.527 15.705882276618295 23.80304967273634 6.2 
5317 1773 1 -1.054 14.92 11.68 25.52 
5318 1773 2 0.527 15.505882276618294 12.436950327263661 25.52 
5319 1773 2 0.527 15.505882276618294 10.923049672736338 25.52 
5320 1774 1 -1.054 3.2800000000000002 6.680000000000001 29.48 
5321 1774 2 0.527 3.865882276618295 7.436950327263662 29.48 
5322 1774 2 0.527 3.865882276618295 5.923049672736339 29.48 
5323 1775 1 -1.054 38.48 37.120000000000005 13.64 
5324 1775 2 0.527 39.0658822766183 37.876950327263664 13.64 
5325 1775 2 0.527 39.0658822766183 36.36304967273634 13.64 
5326 1776 1 -1.054 37.8 2.64 32.480000000000004 
5327 1776 2 0.527 38.3858822766183 3.3969503272636614 32.480000000000004 
5328 1776 2 0.527 38.3858822766183 1.8830496727363388 32.480000000000004 
5329 1777 1 -1.054 31.080000000000002 18.240000000000002 38.199999999999996 
5330 1777 2 0.527 31.665882276618298 18.99695032726366 38.199999999999996 
5331 1777 2 0.527 31.665882276618298 17.48304967273634 38.199999999999996 
5332 1778 1 -1.054 24.84 12.56 37.64 
5333 1778 2 0.527 25.425882276618296 13.316950327263662 37.64 
5334 1778 2 0.527 25.425882276618296 11.80304967273634 37.64 
5335 1779 1 -1.054 3.12 32.2 33.879999999999995 
5336 1779 2 0.527 3.705882276618295 32.95695032726366 33.879999999999995 
5337 1779 2 0.527 3.705882276618295 31.44304967273634 33.879999999999995 
5338 1780 1 -1.054 11.399999999999999 24.4 39.08 
5339 1780 2 0.527 11.985882276618295 25.15695032726366 39.08 
5340 1780 2 0.527 11.985882276618295 23.64304967273634 39.08 
5341 1781 1 -1.054 35.8 36.0 18.0 
5342 1781 2 0.527 36.3858822766183 36.75695032726366 18.0 
5343 1781 2 0.527 36.3858822766183 35.24304967273634 18.0 
5344 1782 1 -1.054 23.119999999999997 20.48 23.56 
5345 1782 2 0.527 23.705882276618297 21.236950327263663 23.56 
5346 1782 2 0.527 23.705882276618297 19.723049672736337 23.56 
5347 1783 1 -1.054 7.800000000000001 33.12 5.76 
5348 1783 2 0.527 8.385882276618295 33.87695032726366 5.76 
5349 1783 2 0.527 8.385882276618295 32.36304967273634 5.76 
5350 1784 1 -1.054 36.56 17.96 25.68 
5351 1784 2 0.527 37.145882276618295 18.71695032726366 25.68 
5352 1784 2 0.527 37.145882276618295 17.203049672736338 25.68 
5353 1785 1 -1.054 15.56 14.48 38.76 
5354 1785 2 0.527 16.145882276618295 15.23695032726366 38.76 
5355 1785 2 0.527 16.145882276618295 13.723049672736337 38.76 
5356 1786 1 -1.054 37.76 2.4 21.96 
5357 1786 2 0.527 38.3458822766183 3.156950327263661 21.96 
5358 1786 2 0.527 38.3458822766183 1.6430496727363386 21.96 
5359 1787 1 -1.054 38.72 28.32 35.44 
5360 1787 2 0.527 39.3058822766183 29.07695032726366 35.44 
5361 1787 2 0.527 39.3058822766183 27.563049672736337 35.44 
5362 1788 1 -1.054 14.04 27.480000000000004 28.119999999999997 
5363 1788 2 0.527 14.625882276618293 28.236950327263663 28.119999999999997 
5364 1788 2 0.527 14.625882276618293 26.72304967273634 28.119999999999997 
5365 1789 1 -1.054 12.0 23.439999999999998 24.759999999999998 
5366 1789 2 0.527 12.585882276618294 24.19695032726366 24.759999999999998 
5367 1789 2 0.527 12.585882276618294 22.683049672736338 24.759999999999998 
5368 1790 1 -1.054 6.04 4.84 30.68 
5369 1790 2 0.527 6.625882276618294 5.596950327263661 30.68 
5370 1790 2 0.527 6.625882276618294 4.083049672736339 30.68 
5371 1791 1 -1.054 32.599999999999994 25.240000000000002 31.68 
5372 1791 2 0.527 33.185882276618294 25.99695032726366 31.68 
5373 1791 2 0.527 33.185882276618294 24.48304967273634 31.68 
5374 1792 1 -1.054 0.2 22.759999999999998 39.36 
5375 1792 2 0.527 0.7858822766182949 23.516950327263658 39.36 
5376 1792 2 0.527 0.7858822766182949 22.00304967273634 39.36 
5377 1793 1 -1.054 5.24 14.079999999999998 25.72 
5378 1793 2 0.527 5.8258822766182945 14.836950327263661 25.72 
5379 1793 2 0.527 5.8258822766182945 13.323049672736339 25.72 
5380 1794 1 -1.054 2.88 3.04 5.92 
5381 1794 2 0.527 3.4658822766182946 3.7969503272636613 5.92 
5382 1794 2 0.527 3.4658822766182946 2.2830496727363387 5.92 
5383 1795 1 -1.054 21.12 18.759999999999998 24.92 
5384 1795 2 0.527 21.705882276618297 19.51695032726366 24.92 
5385 1795 2 0.527 21.705882276618297 18.00304967273634 24.92 
5386 1796 1 -1.054 7.24 20.44 28.599999999999998 
5387 1796 2 0.527 7.8258822766182945 21.19695032726366 28.599999999999998 
5388 1796 2 0.527 7.8258822766182945 19.683049672736338 28.599999999999998 
5389 1797 1 -1.054 20.4 33.4 2.68 
5390 1797 2 0.527 20.985882276618298 34.15695032726366 2.68 
5391 1797 2 0.527 20.985882276618298 32.64304967273634 2.68 
5392 1798 1 -1.054 15.84 19.36 7.720000000000001 
5393 1798 2 0.527 16.425882276618296 20.11695032726366 7.720000000000001 
5394 1798 2 0.527 16.425882276618296 18.60304967273634 7.720000000000001 
5395 1799 1 -1.054 23.36 22.639999999999997 19.8 
5396 1799 2 0.527 23.945882276618295 23.39695032726366 19.8 
5397 1799 2 0.527 23.945882276618295 21.883049672736337 19.8 
5398 1800 1 -1.054 6.6000000000000005 5.76 21.96 
5399 1800 2 0.527 7.185882276618295 6.516950327263661 21.96 
5400 1800 2 0.527 7.185882276618295 5.0030496727363385 21.96 
5401 1801 1 -1.054 39.48 29.88 30.240000000000002 
5402 1801 2 0.527 40.0658822766183 30.636950327263662 30.240000000000002 
5403 1801 2 0.527 40.0658822766183 29.12304967273634 30.240000000000002 
5404 1802 1 -1.054 12.68 27.599999999999998 6.08 
5405 1802 2 0.527 13.265882276618296 28.35695032726366 6.08 
5406 1802 2 0.527 13.265882276618296 26.843049672736335 6.08 
5407 1803 1 -1.054 10.8 21.36 31.840000000000003 
5408 1803 2 0.527 11.385882276618295 22.116950327263663 31.840000000000003 
5409 1803 2 0.527 11.385882276618295 20.60304967273634 31.840000000000003 
5410 1804 1 -1.054 21.92 15.280000000000001 20.96 
5411 1804 2 0.527 22.505882276618298 16.03695032726366 20.96 
5412 1804 2 0.527 22.505882276618298 14.523049672736338 20.96 
5413 1805 1 -1.054 23.68 4.0 2.0 
5414 1805 2 0.527 24.265882276618296 4.756950327263661 2.0 
5415 1805 2 0.527 24.265882276618296 3.2430496727363387 2.0 
5416 1806 1 -1.054 5.48 21.16 11.080000000000002 
5417 1806 2 0.527 6.065882276618295 21.916950327263663 11.080000000000002 
5418 1806 2 0.527 6.065882276618295 20.40304967273634 11.080000000000002 
5419 1807 1 -1.054 17.04 22.040000000000003 22.88 
5420 1807 2 0.527 17.625882276618295 22.796950327263662 22.88 
5421 1807 2 0.527 17.625882276618295 21.28304967273634 22.88 
5422 1808 1 -1.054 2.4 30.52 15.04 
5423 1808 2 0.527 2.9858822766182946 31.276950327263663 15.04 
5424 1808 2 0.527 2.9858822766182946 29.76304967273634 15.04 
5425 1809 1 -1.054 29.759999999999998 35.76 17.44 
5426 1809 2 0.527 30.345882276618298 36.516950327263665 17.44 
5427 1809 2 0.527 30.345882276618298 35.00304967273634 17.44 
5428 1810 1 -1.054 6.879999999999999 40.0 19.6 
5429 1810 2 0.527 7.465882276618294 40.75695032726366 19.6 
5430 1810 2 0.527 7.465882276618294 39.24304967273634 19.6 
5431 1811 1 -1.054 8.84 36.160000000000004 30.64 
5432 1811 2 0.527 9.425882276618294 36.91695032726366 30.64 
5433 1811 2 0.527 9.425882276618294 35.40304967273634 30.64 
5434 1812 1 -1.054 20.92 23.96 16.72 
5435 1812 2 0.527 21.505882276618298 24.71695032726366 16.72 
5436 1812 2 0.527 21.505882276618298 23.203049672736338 16.72 
5437 1813 1 -1.054 22.480000000000004 35.12 19.84 
5438 1813 2 0.527 23.0658822766183 35.876950327263664 19.84 
5439 1813 2 0.527 23.0658822766183 34.36304967273634 19.84 
5440 1814 1 -1.054 34.76 14.079999999999998 37.04 
5441 1814 2 0.527 35.3458822766183 14.836950327263661 37.04 
5442 1814 2 0.527 35.3458822766183 13.323049672736339 37.04 
5443 1815 1 -1.054 6.959999999999999 10.8 14.879999999999999 
5444 1815 2 0.527 7.545882276618294 11.556950327263662 14.879999999999999 
5445 1815 2 0.527 7.545882276618294 10.04304967273634 14.879999999999999 
5446 1816 1 -1.054 29.6 26.720000000000002 10.24 
5447 1816 2 0.527 30.185882276618297 27.476950327263662 10.24 
5448 1816 2 0.527 30.185882276618297 25.96304967273634 10.24 
5449 1817 1 -1.054 32.08 18.88 32.400000000000006 
5450 1817 2 0.527 32.6658822766183 19.636950327263662 32.400000000000006 
5451 1817 2 0.527 32.6658822766183 18.123049672736336 32.400000000000006 
5452 1818 1 -1.054 24.88 0.48 23.439999999999998 
5453 1818 2 0.527 25.465882276618295 1.2369503272636613 23.439999999999998 
5454 1818 2 0.527 25.465882276618295 -0.27695032726366114 23.439999999999998 
5455 1819 1 -1.054 17.04 22.360000000000003 33.08 
5456 1819 2 0.527 17.625882276618295 23.116950327263663 33.08 
5457 1819 2 0.527 17.625882276618295 21.60304967273634 33.08 
5458 1820 1 -1.054 40.0 21.520000000000003 6.879999999999999 
5459 1820 2 0.527 40.58588227661829 22.276950327263663 6.879999999999999 
5460 1820 2 0.527 40.58588227661829 20.76304967273634 6.879999999999999 
5461 1821 1 -1.054 21.8 38.56 39.96 
5462 1821 2 0.527 22.385882276618297 39.31695032726366 39.96 
5463 1821 2 0.527 22.385882276618297 37.803049672736336 39.96 
5464 1822 1 -1.054 17.64 15.600000000000001 15.760000000000002 
5465 1822 2 0.527 18.225882276618293 16.35695032726366 15.760000000000002 
5466 1822 2 0.527 18.225882276618293 14.843049672736338 15.760000000000002 
5467 1823 1 -1.054 36.2 3.04 4.16 
5468 1823 2 0.527 36.785882276618295 3.7969503272636613 4.16 
5469 1823 2 0.527 36.785882276618295 2.2830496727363387 4.16 
5470 1824 1 -1.054 23.159999999999997 20.52 28.96 
5471 1824 2 0.527 23.745882276618296 21.276950327263663 28.96 
5472 1824 2 0.527 23.745882276618296 19.76304967273634 28.96 
5473 1825 1 -1.054 17.52 4.5600000000000005 19.0 
5474 1825 2 0.527 18.105882276618296 5.316950327263661 19.0 
5475 1825 2 0.527 18.105882276618296 3.8030496727363388 19.0 
5476 1826 1 -1.054 9.360000000000001 31.92 14.879999999999999 
5477 1826 2 0.527 9.945882276618295 32.67695032726366 14.879999999999999 
5478 1826 2 0.527 9.945882276618295 31.163049672736342 14.879999999999999 
5479 1827 1 -1.054 9.8 12.84 22.32 
5480 1827 2 0.527 10.385882276618295 13.596950327263661 22.32 
5481 1827 2 0.527 10.385882276618295 12.083049672736339 22.32 
5482 1828 1 -1.054 24.28 37.96 19.8 
5483 1828 2 0.527 24.865882276618297 38.71695032726366 19.8 
5484 1828 2 0.527 24.865882276618297 37.203049672736334 19.8 
5485 1829 1 -1.054 20.96 10.56 30.2 
5486 1829 2 0.527 21.545882276618297 11.316950327263662 30.2 
5487 1829 2 0.527 21.545882276618297 9.80304967273634 30.2 
5488 1830 1 -1.054 28.36 24.24 13.84 
5489 1830 2 0.527 28.945882276618295 24.99695032726366 13.84 
5490 1830 2 0.527 28.945882276618295 23.48304967273634 13.84 
5491 1831 1 -1.054 9.96 3.5599999999999996 28.2 
5492 1831 2 0.527 10.545882276618295 4.316950327263661 28.2 
5493 1831 2 0.527 10.545882276618295 2.8030496727363383 28.2 
5494 1832 1 -1.054 2.2800000000000002 19.4 39.92 
5495 1832 2 0.527 2.865882276618295 20.15695032726366 39.92 
5496 1832 2 0.527 2.865882276618295 18.64304967273634 39.92 
5497 1833 1 -1.054 11.120000000000001 37.559999999999995 27.400000000000002 
5498 1833 2 0.527 11.705882276618295 38.31695032726366 27.400000000000002 
5499 1833 2 0.527 11.705882276618295 36.803049672736336 27.400000000000002 
5500 1834 1 -1.054 31.520000000000003 13.200000000000001 15.64 
5501 1834 2 0.527 32.105882276618296 13.956950327263662 15.64 
5502 1834 2 0.527 32.105882276618296 12.44304967273634 15.64 
5503 1835 1 -1.054 13.4 12.48 30.52 
5504 1835 2 0.527 13.985882276618295 13.236950327263662 30.52 
5505 1835 2 0.527 13.985882276618295 11.72304967273634 30.52 
5506 1836 1 -1.054 21.720000000000002 11.16 16.48 
5507 1836 2 0.527 22.3058822766183 11.916950327263663 16.48 
5508 1836 2 0.527 22.3058822766183 10.40304967273634 16.48 
5509 1837 1 -1.054 1.6 0.52 27.12 
5510 1837 2 0.527 2.185882276618295 1.2769503272636613 27.12 
5511 1837 2 0.527 2.185882276618295 -0.23695032726366116 27.12 
5512 1838 1 -1.054 3.88 26.0 12.4 
5513 1838 2 0.527 4.465882276618295 26.756950327263663 12.4 
5514 1838 2 0.527 4.465882276618295 25.24304967273634 12.4 
5515 1839 1 -1.054 16.72 23.2 11.200000000000001 
5516 1839 2 0.527 17.305882276618295 23.95695032726366 11.200000000000001 
5517 1839 2 0.527 17.305882276618295 22.443049672736336 11.200000000000001 
5518 1840 1 -1.054 23.08 31.240000000000002 24.439999999999998 
5519 1840 2 0.527 23.665882276618294 31.99695032726366 24.439999999999998 
5520 1840 2 0.527 23.665882276618294 30.48304967273634 24.439999999999998 
5521 1841 1 -1.054 35.64 26.68 5.4 
5522 1841 2 0.527 36.2258822766183 27.436950327263663 5.4 
5523 1841 2 0.527 36.2258822766183 25.92304967273634 5.4 
5524 1842 1 -1.054 2.7600000000000002 30.72 27.240000000000002 
5525 1842 2 0.527 3.345882276618295 31.476950327263662 27.240000000000002 
5526 1842 2 0.527 3.345882276618295 29.96304967273634 27.240000000000002 
5527 1843 1 -1.054 5.12 17.48 39.68 
5528 1843 2 0.527 5.705882276618295 18.23695032726366 39.68 
5529 1843 2 0.527 5.705882276618295 16.723049672736337 39.68 
5530 1844 1 -1.054 38.72 31.12 37.24 
5531 1844 2 0.527 39.3058822766183 31.876950327263664 37.24 
5532 1844 2 0.527 39.3058822766183 30.363049672736338 37.24 
5533 1845 1 -1.054 1.8399999999999999 14.239999999999998 8.48 
5534 1845 2 0.527 2.425882276618295 14.996950327263662 8.48 
5535 1845 2 0.527 2.425882276618295 13.483049672736339 8.48 
5536 1846 1 -1.054 33.6 6.08 3.0 
5537 1846 2 0.527 34.185882276618294 6.836950327263661 3.0 
5538 1846 2 0.527 34.185882276618294 5.323049672736339 3.0 
5539 1847 1 -1.054 12.24 20.68 26.36 
5540 1847 2 0.527 12.825882276618294 21.436950327263663 26.36 
5541 1847 2 0.527 12.825882276618294 19.92304967273634 26.36 
5542 1848 1 -1.054 33.48 6.5600000000000005 7.880000000000001 
5543 1848 2 0.527 34.0658822766183 7.316950327263662 7.880000000000001 
5544 1848 2 0.527 34.0658822766183 5.803049672736339 7.880000000000001 
5545 1849 1 -1.054 23.64 8.0 15.2 
5546 1849 2 0.527 24.225882276618297 8.756950327263661 15.2 
5547 1849 2 0.527 24.225882276618297 7.243049672736339 15.2 
5548 1850 1 -1.054 29.84 31.36 23.0 
5549 1850 2 0.527 30.425882276618296 32.116950327263666 23.0 
5550 1850 2 0.527 30.425882276618296 30.60304967273634 23.0 
5551 1851 1 -1.054 18.28 21.68 3.04 
5552 1851 2 0.527 18.865882276618294 22.436950327263663 3.04 
5553 1851 2 0.527 18.865882276618294 20.92304967273634 3.04 
5554 1852 1 -1.054 39.48 36.44 3.12 
5555 1852 2 0.527 40.0658822766183 37.196950327263664 3.12 
5556 1852 2 0.527 40.0658822766183 35.68304967273634 3.12 
5557 1853 1 -1.054 19.04 7.24 27.360000000000003 
5558 1853 2 0.527 19.625882276618295 7.9969503272636615 27.360000000000003 
5559 1853 2 0.527 19.625882276618295 6.483049672736339 27.360000000000003 
5560 1854 1 -1.054 39.72 12.08 6.12 
5561 1854 2 0.527 40.3058822766183 12.836950327263661 6.12 
5562 1854 2 0.527 40.3058822766183 11.323049672736339 6.12 
5563 1855 1 -1.054 4.640000000000001 17.8 6.4 
5564 1855 2 0.527 5.225882276618296 18.55695032726366 6.4 
5565 1855 2 0.527 5.225882276618296 17.043049672736338 6.4 
5566 1856 1 -1.054 15.280000000000001 22.400000000000002 8.120000000000001 
5567 1856 2 0.527 15.865882276618295 23.156950327263665 8.120000000000001 
5568 1856 2 0.527 15.865882276618295 21.64304967273634 8.120000000000001 
5569 1857 1 -1.054 34.72 21.840000000000003 16.64 
5570 1857 2 0.527 35.3058822766183 22.596950327263663 16.64 
5571 1857 2 0.527 35.3058822766183 21.08304967273634 16.64 
5572 1858 1 -1.054 1.7199999999999998 3.5999999999999996 0.76 
5573 1858 2 0.527 2.305882276618295 4.356950327263661 0.76 
5574 1858 2 0.527 2.305882276618295 2.8430496727363384 0.76 
5575 1859 1 -1.054 39.519999999999996 26.96 27.56 
5576 1859 2 0.527 40.10588227661829 27.716950327263664 27.56 
5577 1859 2 0.527 40.10588227661829 26.20304967273634 27.56 
5578 1860 1 -1.054 30.64 16.599999999999998 26.28 
5579 1860 2 0.527 31.225882276618297 17.35695032726366 26.28 
5580 1860 2 0.527 31.225882276618297 15.843049672736338 26.28 
5581 1861 1 -1.054 12.28 31.32 27.68 
5582 1861 2 0.527 12.865882276618294 32.07695032726366 27.68 
5583 1861 2 0.527 12.865882276618294 30.56304967273634 27.68 
5584 1862 1 -1.054 24.08 29.72 14.559999999999999 
5585 1862 2 0.527 24.665882276618298 30.476950327263662 14.559999999999999 
5586 1862 2 0.527 24.665882276618298 28.96304967273634 14.559999999999999 
5587 1863 1 -1.054 17.4 12.48 0.68 
5588 1863 2 0.527 17.985882276618295 13.236950327263662 0.68 
5589 1863 2 0.527 17.985882276618295 11.72304967273634 0.68 
5590 1864 1 -1.054 25.64 34.0 30.880000000000003 
5591 1864 2 0.527 26.225882276618297 34.75695032726366 30.880000000000003 
5592 1864 2 0.527 26.225882276618297 33.24304967273634 30.880000000000003 
5593 1865 1 -1.054 20.96 14.36 32.96 
5594 1865 2 0.527 21.545882276618297 15.11695032726366 32.96 
5595 1865 2 0.527 21.545882276618297 13.603049672736338 32.96 
5596 1866 1 -1.054 6.5200000000000005 20.32 36.0 
5597 1866 2 0.527 7.105882276618295 21.07695032726366 36.0 
5598 1866 2 0.527 7.105882276618295 19.56304967273634 36.0 
5599 1867 1 -1.054 5.76 5.44 34.72 
5600 1867 2 0.527 6.345882276618294 6.196950327263662 34.72 
5601 1867 2 0.527 6.345882276618294 4.683049672736339 34.72 
5602 1868 1 -1.054 18.2 30.72 38.8 
5603 1868 2 0.527 18.785882276618295 31.476950327263662 38.8 
5604 1868 2 0.527 18.785882276618295 29.96304967273634 38.8 
5605 1869 1 -1.054 10.88 10.280000000000001 3.4799999999999995 
5606 1869 2 0.527 11.465882276618295 11.03695032726366 3.4799999999999995 
5607 1869 2 0.527 11.465882276618295 9.523049672736338 3.4799999999999995 
5608 1870 1 -1.054 29.6 6.800000000000001 15.36 
5609 1870 2 0.527 30.185882276618297 7.556950327263662 15.36 
5610 1870 2 0.527 30.185882276618297 6.043049672736339 15.36 
5611 1871 1 -1.054 14.719999999999999 25.92 10.8 
5612 1871 2 0.527 15.305882276618295 26.67695032726366 10.8 
5613 1871 2 0.527 15.305882276618295 25.16304967273634 10.8 
5614 1872 1 -1.054 4.5600000000000005 15.920000000000002 13.600000000000001 
5615 1872 2 0.527 5.145882276618296 16.67695032726366 13.600000000000001 
5616 1872 2 0.527 5.145882276618296 15.163049672736339 13.600000000000001 
5617 1873 1 -1.054 20.8 12.92 10.0 
5618 1873 2 0.527 21.385882276618297 13.676950327263661 10.0 
5619 1873 2 0.527 21.385882276618297 12.163049672736339 10.0 
5620 1874 1 -1.054 23.439999999999998 12.72 14.32 
5621 1874 2 0.527 24.025882276618297 13.476950327263662 14.32 
5622 1874 2 0.527 24.025882276618297 11.96304967273634 14.32 
5623 1875 1 -1.054 7.48 3.16 6.28 
5624 1875 2 0.527 8.065882276618295 3.9169503272636614 6.28 
5625 1875 2 0.527 8.065882276618295 2.403049672736339 6.28 
5626 1876 1 -1.054 29.4 20.44 10.8 
5627 1876 2 0.527 29.985882276618298 21.19695032726366 10.8 
5628 1876 2 0.527 29.985882276618298 19.683049672736338 10.8 
5629 1877 1 -1.054 15.96 31.16 23.96 
5630 1877 2 0.527 16.545882276618297 31.916950327263663 23.96 
5631 1877 2 0.527 16.545882276618297 30.40304967273634 23.96 
5632 1878 1 -1.054 5.5200000000000005 27.200000000000003 35.92 
5633 1878 2 0.527 6.105882276618296 27.956950327263662 35.92 
5634 1878 2 0.527 6.105882276618296 26.44304967273634 35.92 
5635 1879 1 -1.054 13.280000000000001 13.72 39.36 
5636 1879 2 0.527 13.865882276618295 14.476950327263662 39.36 
5637 1879 2 0.527 13.865882276618295 12.96304967273634 39.36 
5638 1880 1 -1.054 13.0 35.44 0.64 
5639 1880 2 0.527 13.585882276618296 36.196950327263664 0.64 
5640 1880 2 0.527 13.585882276618296 34.68304967273634 0.64 
5641 1881 1 -1.054 13.4 22.599999999999998 3.3200000000000003 
5642 1881 2 0.527 13.985882276618295 23.35695032726366 3.3200000000000003 
5643 1881 2 0.527 13.985882276618295 21.843049672736335 3.3200000000000003 
5644 1882 1 -1.054 1.52 24.36 33.56 
5645 1882 2 0.527 2.1058822766182947 25.11695032726366 33.56 
5646 1882 2 0.527 2.1058822766182947 23.60304967273634 33.56 
5647 1883 1 -1.054 33.44 3.04 34.44 
5648 1883 2 0.527 34.0258822766183 3.7969503272636613 34.44 
5649 1883 2 0.527 34.0258822766183 2.2830496727363387 34.44 
5650 1884 1 -1.054 27.44 34.84 33.16 
5651 1884 2 0.527 28.025882276618297 35.59695032726366 33.16 
5652 1884 2 0.527 28.025882276618297 34.08304967273634 33.16 
5653 1885 1 -1.054 27.68 6.959999999999999 9.879999999999999 
5654 1885 2 0.527 28.265882276618296 7.71695032726366 9.879999999999999 
5655 1885 2 0.527 28.265882276618296 6.203049672736338 9.879999999999999 
5656 1886 1 -1.054 18.28 5.36 0.36 
5657 1886 2 0.527 18.865882276618294 6.116950327263662 0.36 
5658 1886 2 0.527 18.865882276618294 4.603049672736339 0.36 
5659 1887 1 -1.054 29.2 17.92 27.68 
5660 1887 2 0.527 29.785882276618295 18.67695032726366 27.68 
5661 1887 2 0.527 29.785882276618295 17.16304967273634 27.68 
5662 1888 1 -1.054 7.199999999999999 11.52 22.32 
5663 1888 2 0.527 7.7858822766182945 12.27695032726366 22.32 
5664 1888 2 0.527 7.7858822766182945 10.763049672736338 22.32 
5665 1889 1 -1.054 0.28 27.56 1.32 
5666 1889 2 0.527 0.865882276618295 28.31695032726366 1.32 
5667 1889 2 0.527 0.865882276618295 26.803049672736336 1.32 
5668 1890 1 -1.054 15.88 36.84 13.440000000000001 
5669 1890 2 0.527 16.465882276618295 37.59695032726366 13.440000000000001 
5670 1890 2 0.527 16.465882276618295 36.08304967273634 13.440000000000001 
5671 1891 1 -1.054 36.760000000000005 11.200000000000001 37.08 
5672 1891 2 0.527 37.3458822766183 11.956950327263662 37.08 
5673 1891 2 0.527 37.3458822766183 10.44304967273634 37.08 
5674 1892 1 -1.054 18.2 39.92 4.96 
5675 1892 2 0.527 18.785882276618295 40.67695032726366 4.96 
5676 1892 2 0.527 18.785882276618295 39.163049672736335 4.96 
5677 1893 1 -1.054 24.6 18.560000000000002 33.32 
5678 1893 2 0.527 25.185882276618297 19.316950327263662 33.32 
5679 1893 2 0.527 25.185882276618297 17.80304967273634 33.32 
5680 1894 1 -1.054 38.92 37.92 8.120000000000001 
5681 1894 2 0.527 39.505882276618294 38.67695032726366 8.120000000000001 
5682 1894 2 0.527 39.505882276618294 37.163049672736335 8.120000000000001 
5683 1895 1 -1.054 32.559999999999995 5.2 27.759999999999998 
5684 1895 2 0.527 33.145882276618295 5.9569503272636615 27.759999999999998 
5685 1895 2 0.527 33.145882276618295 4.443049672736339 27.759999999999998 
5686 1896 1 -1.054 11.959999999999999 15.04 10.280000000000001 
5687 1896 2 0.527 12.545882276618293 15.796950327263662 10.280000000000001 
5688 1896 2 0.527 12.545882276618293 14.28304967273634 10.280000000000001 
5689 1897 1 -1.054 16.36 21.0 26.96 
5690 1897 2 0.527 16.945882276618292 21.756950327263663 26.96 
5691 1897 2 0.527 16.945882276618292 20.24304967273634 26.96 
5692 1898 1 -1.054 29.04 23.68 26.720000000000002 
5693 1898 2 0.527 29.625882276618295 24.43695032726366 26.720000000000002 
5694 1898 2 0.527 29.625882276618295 22.923049672736337 26.720000000000002 
5695 1899 1 -1.054 2.88 24.16 22.400000000000002 
5696 1899 2 0.527 3.4658822766182946 24.91695032726366 22.400000000000002 
5697 1899 2 0.527 3.4658822766182946 23.403049672736337 22.400000000000002 
5698 1900 1 -1.054 8.08 29.48 7.199999999999999 
5699 1900 2 0.527 8.665882276618294 30.23695032726366 7.199999999999999 
5700 1900 2 0.527 8.665882276618294 28.723049672736337 7.199999999999999 
5701 1901 1 -1.054 15.8 1.7999999999999998 4.48 
5702 1901 2 0.527 16.385882276618297 2.556950327263661 4.48 
5703 1901 2 0.527 16.385882276618297 1.0430496727363388 4.48 
5704 1902 1 -1.054 2.64 8.28 12.96 
5705 1902 2 0.527 3.225882276618295 9.03695032726366 12.96 
5706 1902 2 0.527 3.225882276618295 7.523049672736338 12.96 
5707 1903 1 -1.054 28.04 25.4 17.0 
5708 1903 2 0.527 28.625882276618295 26.15695032726366 17.0 
5709 1903 2 0.527 28.625882276618295 24.64304967273634 17.0 
5710 1904 1 -1.054 38.8 4.96 3.2800000000000002 
5711 1904 2 0.527 39.3858822766183 5.716950327263661 3.2800000000000002 
5712 1904 2 0.527 39.3858822766183 4.203049672736339 3.2800000000000002 
5713 1905 1 -1.054 17.68 21.28 18.44 
5714 1905 2 0.527 18.265882276618296 22.03695032726366 18.44 
5715 1905 2 0.527 18.265882276618296 20.52304967273634 18.44 
5716 1906 1 -1.054 18.36 37.8 10.64 
5717 1906 2 0.527 18.945882276618295 38.55695032726366 10.64 
5718 1906 2 0.527 18.945882276618295 37.04304967273634 10.64 
5719 1907 1 -1.054 36.2 4.36 8.08 
5720 1907 2 0.527 36.785882276618295 5.116950327263661 8.08 
5721 1907 2 0.527 36.785882276618295 3.6030496727363386 8.08 
5722 1908 1 -1.054 33.16 23.32 23.24 
5723 1908 2 0.527 33.745882276618296 24.07695032726366 23.24 
5724 1908 2 0.527 33.745882276618296 22.563049672736337 23.24 
5725 1909 1 -1.054 5.2 14.239999999999998 6.16 
5726 1909 2 0.527 5.785882276618295 14.996950327263662 6.16 
5727 1909 2 0.527 5.785882276618295 13.483049672736339 6.16 
5728 1910 1 -1.054 4.96 0.72 39.36 
5729 1910 2 0.527 5.545882276618295 1.476950327263661 39.36 
5730 1910 2 0.527 5.545882276618295 -0.03695032726366121 39.36 
5731 1911 1 -1.054 18.560000000000002 9.96 6.48 
5732 1911 2 0.527 19.145882276618295 10.71695032726366 6.48 
5733 1911 2 0.527 19.145882276618295 9.203049672736338 6.48 
5734 1912 1 -1.054 30.240000000000002 24.2 18.919999999999998 
5735 1912 2 0.527 30.825882276618298 24.956950327263662 18.919999999999998 
5736 1912 2 0.527 30.825882276618298 23.443049672736336 18.919999999999998 
5737 1913 1 -1.054 18.6 2.72 8.64 
5738 1913 2 0.527 19.185882276618294 3.4769503272636615 8.64 
5739 1913 2 0.527 19.185882276618294 1.963049672736339 8.64 
5740 1914 1 -1.054 6.36 38.519999999999996 21.92 
5741 1914 2 0.527 6.945882276618295 39.27695032726366 21.92 
5742 1914 2 0.527 6.945882276618295 37.76304967273634 21.92 
5743 1915 1 -1.054 20.28 31.76 25.16 
5744 1915 2 0.527 20.865882276618297 32.516950327263665 25.16 
5745 1915 2 0.527 20.865882276618297 31.00304967273634 25.16 
5746 1916 1 -1.054 21.32 24.52 33.519999999999996 
5747 1916 2 0.527 21.9058822766183 25.276950327263663 33.519999999999996 
5748 1916 2 0.527 21.9058822766183 23.763049672736337 33.519999999999996 
5749 1917 1 -1.054 15.16 16.16 10.760000000000002 
5750 1917 2 0.527 15.745882276618294 16.916950327263663 10.760000000000002 
5751 1917 2 0.527 15.745882276618294 15.40304967273634 10.760000000000002 
5752 1918 1 -1.054 5.64 28.919999999999998 2.3200000000000003 
5753 1918 2 0.527 6.225882276618294 29.67695032726366 2.3200000000000003 
5754 1918 2 0.527 6.225882276618294 28.16304967273634 2.3200000000000003 
5755 1919 1 -1.054 19.64 31.560000000000002 20.28 
5756 1919 2 0.527 20.225882276618297 32.31695032726366 20.28 
5757 1919 2 0.527 20.225882276618297 30.80304967273634 20.28 
5758 1920 1 -1.054 9.96 29.0 17.12 
5759 1920 2 0.527 10.545882276618295 29.75695032726366 17.12 
5760 1920 2 0.527 10.545882276618295 28.243049672736337 17.12 
5761 1921 1 -1.054 5.4 10.88 32.0 
5762 1921 2 0.527 5.985882276618295 11.636950327263662 32.0 
5763 1921 2 0.527 5.985882276618295 10.12304967273634 32.0 
5764 1922 1 -1.054 20.4 23.84 37.8 
5765 1922 2 0.527 20.985882276618298 24.59695032726366 37.8 
5766 1922 2 0.527 20.985882276618298 23.083049672736337 37.8 
5767 1923 1 -1.054 23.119999999999997 0.36 21.44 
5768 1923 2 0.527 23.705882276618297 1.1169503272636612 21.44 
5769 1923 2 0.527 23.705882276618297 -0.3969503272636612 21.44 
5770 1924 1 -1.054 7.720000000000001 1.04 14.48 
5771 1924 2 0.527 8.305882276618295 1.796950327263661 14.48 
5772 1924 2 0.527 8.305882276618295 0.2830496727363388 14.48 
5773 1925 1 -1.054 30.44 31.32 32.839999999999996 
5774 1925 2 0.527 31.025882276618297 32.07695032726366 32.839999999999996 
5775 1925 2 0.527 31.025882276618297 30.56304967273634 32.839999999999996 
5776 1926 1 -1.054 24.96 14.92 9.399999999999999 
5777 1926 2 0.527 25.545882276618297 15.676950327263661 9.399999999999999 
5778 1926 2 0.527 25.545882276618297 14.163049672736339 9.399999999999999 
5779 1927 1 -1.054 32.96 22.32 34.2 
5780 1927 2 0.527 33.54588227661829 23.076950327263663 34.2 
5781 1927 2 0.527 33.54588227661829 21.56304967273634 34.2 
5782 1928 1 -1.054 25.08 13.48 1.08 
5783 1928 2 0.527 25.665882276618298 14.236950327263662 1.08 
5784 1928 2 0.527 25.665882276618298 12.72304967273634 1.08 
5785 1929 1 -1.054 21.240000000000002 17.28 12.48 
5786 1929 2 0.527 21.825882276618298 18.03695032726366 12.48 
5787 1929 2 0.527 21.825882276618298 16.523049672736338 12.48 
5788 1930 1 -1.054 38.68 30.04 20.8 
5789 1930 2 0.527 39.2658822766183 30.796950327263662 20.8 
5790 1930 2 0.527 39.2658822766183 29.28304967273634 20.8 
5791 1931 1 -1.054 2.24 1.04 2.44 
5792 1931 2 0.527 2.825882276618295 1.796950327263661 2.44 
5793 1931 2 0.527 2.825882276618295 0.2830496727363388 2.44 
5794 1932 1 -1.054 32.92 35.52 32.24 
5795 1932 2 0.527 33.505882276618294 36.27695032726366 32.24 
5796 1932 2 0.527 33.505882276618294 34.76304967273634 32.24 
5797 1933 1 -1.054 17.68 15.760000000000002 32.76 
5798 1933 2 0.527 18.265882276618296 16.51695032726366 32.76 
5799 1933 2 0.527 18.265882276618296 15.003049672736338 32.76 
5800 1934 1 -1.054 5.08 20.4 19.119999999999997 
5801 1934 2 0.527 5.665882276618294 21.15695032726366 19.119999999999997 
5802 1934 2 0.527 5.665882276618294 19.64304967273634 19.119999999999997 
5803 1935 1 -1.054 2.88 27.68 37.440000000000005 
5804 1935 2 0.527 3.4658822766182946 28.43695032726366 37.440000000000005 
5805 1935 2 0.527 3.4658822766182946 26.923049672736337 37.440000000000005 
5806 1936 1 -1.054 35.2 17.68 20.92 
5807 1936 2 0.527 35.785882276618295 18.436950327263663 20.92 
5808 1936 2 0.527 35.785882276618295 16.92304967273634 20.92 
5809 1937 1 -1.054 24.119999999999997 35.72 11.719999999999999 
5810 1937 2 0.527 24.705882276618297 36.476950327263665 11.719999999999999 
5811 1937 2 0.527 24.705882276618297 34.96304967273634 11.719999999999999 
5812 1938 1 -1.054 1.08 39.8 32.32 
5813 1938 2 0.527 1.6658822766182948 40.55695032726366 32.32 
5814 1938 2 0.527 1.6658822766182948 39.04304967273634 32.32 
5815 1939 1 -1.054 36.760000000000005 21.400000000000002 10.68 
5816 1939 2 0.527 37.3458822766183 22.15695032726366 10.68 
5817 1939 2 0.527 37.3458822766183 20.64304967273634 10.68 
5818 1940 1 -1.054 36.68 13.280000000000001 32.24 
5819 1940 2 0.527 37.2658822766183 14.036950327263662 32.24 
5820 1940 2 0.527 37.2658822766183 12.52304967273634 32.24 
5821 1941 1 -1.054 37.8 1.32 17.48 
5822 1941 2 0.527 38.3858822766183 2.0769503272636616 17.48 
5823 1941 2 0.527 38.3858822766183 0.5630496727363389 17.48 
5824 1942 1 -1.054 0.96 15.48 1.24 
5825 1942 2 0.527 1.5458822766182951 16.236950327263663 1.24 
5826 1942 2 0.527 1.5458822766182951 14.72304967273634 1.24 
5827 1943 1 -1.054 26.0 4.8 32.32 
5828 1943 2 0.527 26.5858822766183 5.556950327263661 32.32 
5829 1943 2 0.527 26.5858822766183 4.0430496727363385 32.32 
5830 1944 1 -1.054 31.560000000000002 37.92 31.400000000000002 
5831 1944 2 0.527 32.145882276618295 38.67695032726366 31.400000000000002 
5832 1944 2 0.527 32.145882276618295 37.163049672736335 31.400000000000002 
5833 1945 1 -1.054 11.319999999999999 12.68 13.84 
5834 1945 2 0.527 11.905882276618293 13.436950327263661 13.84 
5835 1945 2 0.527 11.905882276618293 11.923049672736338 13.84 
5836 1946 1 -1.054 35.36 38.36 11.319999999999999 
5837 1946 2 0.527 35.9458822766183 39.11695032726366 11.319999999999999 
5838 1946 2 0.527 35.9458822766183 37.60304967273634 11.319999999999999 
5839 1947 1 -1.054 16.4 28.88 33.879999999999995 
5840 1947 2 0.527 16.985882276618295 29.636950327263662 33.879999999999995 
5841 1947 2 0.527 16.985882276618295 28.123049672736336 33.879999999999995 
5842 1948 1 -1.054 16.64 31.68 3.24 
5843 1948 2 0.527 17.225882276618293 32.43695032726366 3.24 
5844 1948 2 0.527 17.225882276618293 30.92304967273634 3.24 
5845 1949 1 -1.054 3.0 11.28 16.72 
5846 1949 2 0.527 3.5858822766182947 12.03695032726366 16.72 
5847 1949 2 0.527 3.5858822766182947 10.523049672736338 16.72 
5848 1950 1 -1.054 2.04 1.52 14.719999999999999 
5849 1950 2 0.527 2.6258822766182948 2.276950327263661 14.719999999999999 
5850 1950 2 0.527 2.6258822766182948 0.7630496727363388 14.719999999999999 
5851 1951 1 -1.054 17.4 16.48 2.2800000000000002 
5852 1951 2 0.527 17.985882276618295 17.23695032726366 2.2800000000000002 
5853 1951 2 0.527 17.985882276618295 15.723049672736337 2.2800000000000002 
5854 1952 1 -1.054 17.52 28.72 4.32 
5855 1952 2 0.527 18.105882276618296 29.47695032726366 4.32 
5856 1952 2 0.527 18.105882276618296 27.96304967273634 4.32 
5857 1953 1 -1.054 25.0 29.32 35.4 
5858 1953 2 0.527 25.585882276618296 30.07695032726366 35.4 
5859 1953 2 0.527 25.585882276618296 28.563049672736337 35.4 
5860 1954 1 -1.054 1.04 33.64 34.4 
5861 1954 2 0.527 1.6258822766182948 34.39695032726366 34.4 
5862 1954 2 0.527 1.6258822766182948 32.883049672736334 34.4 
5863 1955 1 -1.054 38.44 25.28 0.04 
5864 1955 2 0.527 39.0258822766183 26.03695032726366 0.04 
5865 1955 2 0.527 39.0258822766183 24.523049672736338 0.04 
5866 1956 1 -1.054 3.5599999999999996 21.32 30.880000000000003 
5867 1956 2 0.527 4.145882276618295 22.076950327263663 30.880000000000003 
5868 1956 2 0.527 4.145882276618295 20.56304967273634 30.880000000000003 
5869 1957 1 -1.054 25.0 25.48 30.92 
5870 1957 2 0.527 25.585882276618296 26.236950327263663 30.92 
5871 1957 2 0.527 25.585882276618296 24.723049672736337 30.92 
5872 1958 1 -1.054 21.92 6.28 15.16 
5873 1958 2 0.527 22.505882276618298 7.0369503272636615 15.16 
5874 1958 2 0.527 22.505882276618298 5.523049672736339 15.16 
5875 1959 1 -1.054 32.879999999999995 32.76 14.399999999999999 
5876 1959 2 0.527 33.465882276618295 33.51695032726366 14.399999999999999 
5877 1959 2 0.527 33.465882276618295 32.00304967273634 14.399999999999999 
5878 1960 1 -1.054 36.4 16.84 38.239999999999995 
5879 1960 2 0.527 36.9858822766183 17.59695032726366 38.239999999999995 
5880 1960 2 0.527 36.9858822766183 16.083049672736337 38.239999999999995 
5881 1961 1 -1.054 11.240000000000002 20.4 7.24 
5882 1961 2 0.527 11.825882276618296 21.15695032726366 7.24 
5883 1961 2 0.527 11.825882276618296 19.64304967273634 7.24 
5884 1962 1 -1.054 1.52 20.28 25.84 
5885 1962 2 0.527 2.1058822766182947 21.03695032726366 25.84 
5886 1962 2 0.527 2.1058822766182947 19.523049672736338 25.84 
5887 1963 1 -1.054 18.96 17.6 35.480000000000004 
5888 1963 2 0.527 19.545882276618293 18.35695032726366 35.480000000000004 
5889 1963 2 0.527 19.545882276618293 16.84304967273634 35.480000000000004 
5890 1964 1 -1.054 30.16 28.479999999999997 2.8000000000000003 
5891 1964 2 0.527 30.745882276618296 29.23695032726366 2.8000000000000003 
5892 1964 2 0.527 30.745882276618296 27.723049672736337 2.8000000000000003 
5893 1965 1 -1.054 18.12 25.0 36.24 
5894 1965 2 0.527 18.705882276618297 25.75695032726366 36.24 
5895 1965 2 0.527 18.705882276618297 24.24304967273634 36.24 
5896 1966 1 -1.054 38.12 6.5200000000000005 10.8 
5897 1966 2 0.527 38.7058822766183 7.276950327263662 10.8 
5898 1966 2 0.527 38.7058822766183 5.763049672736339 10.8 
5899 1967 1 -1.054 8.36 26.16 30.36 
5900 1967 2 0.527 8.945882276618294 26.916950327263663 30.36 
5901 1967 2 0.527 8.945882276618294 25.40304967273634 30.36 
5902 1968 1 -1.054 5.24 37.64 33.76 
5903 1968 2 0.527 5.8258822766182945 38.39695032726366 33.76 
5904 1968 2 0.527 5.8258822766182945 36.883049672736334 33.76 
5905 1969 1 -1.054 16.759999999999998 15.16 28.159999999999997 
5906 1969 2 0.527 17.345882276618294 15.916950327263661 28.159999999999997 
5907 1969 2 0.527 17.345882276618294 14.403049672736339 28.159999999999997 
5908 1970 1 -1.054 18.28 12.12 23.479999999999997 
5909 1970 2 0.527 18.865882276618294 12.87695032726366 23.479999999999997 
5910 1970 2 0.527 18.865882276618294 11.363049672736338 23.479999999999997 
5911 1971 1 -1.054 32.8 13.32 38.76 
5912 1971 2 0.527 33.3858822766183 14.076950327263662 38.76 
5913 1971 2 0.527 33.3858822766183 12.563049672736339 38.76 
5914 1972 1 -1.054 26.200000000000003 6.28 5.2 
5915 1972 2 0.527 26.7858822766183 7.0369503272636615 5.2 
5916 1972 2 0.527 26.7858822766183 5.523049672736339 5.2 
5917 1973 1 -1.054 17.2 35.92 18.16 
5918 1973 2 0.527 17.785882276618295 36.67695032726366 18.16 
5919 1973 2 0.527 17.785882276618295 35.16304967273634 18.16 
5920 1974 1 -1.054 20.52 12.96 37.96 
5921 1974 2 0.527 21.105882276618296 13.716950327263662 37.96 
5922 1974 2 0.527 21.105882276618296 12.20304967273634 37.96 
5923 1975 1 -1.054 38.48 15.920000000000002 11.68 
5924 1975 2 0.527 39.0658822766183 16.67695032726366 11.68 
5925 1975 2 0.527 39.0658822766183 15.163049672736339 11.68 
5926 1976 1 -1.054 3.0 1.6400000000000001 21.68 
5927 1976 2 0.527 3.5858822766182947 2.396950327263661 21.68 
5928 1976 2 0.527 3.5858822766182947 0.8830496727363389 21.68 
5929 1977 1 -1.054 11.28 33.16 4.640000000000001 
5930 1977 2 0.527 11.865882276618294 33.91695032726366 4.640000000000001 
5931 1977 2 0.527 11.865882276618294 32.40304967273634 4.640000000000001 
5932 1978 1 -1.054 10.0 9.16 38.96 
5933 1978 2 0.527 10.585882276618294 9.916950327263661 38.96 
5934 1978 2 0.527 10.585882276618294 8.403049672736339 38.96 
5935 1979 1 -1.054 4.8 8.24 34.64 
5936 1979 2 0.527 5.385882276618295 8.996950327263662 34.64 
5937 1979 2 0.527 5.385882276618295 7.483049672736338 34.64 
5938 1980 1 -1.054 26.560000000000002 13.24 30.76 
5939 1980 2 0.527 27.1458822766183 13.996950327263662 30.76 
5940 1980 2 0.527 27.1458822766183 12.483049672736339 30.76 
5941 1981 1 -1.054 27.12 26.240000000000002 35.28 
5942 1981 2 0.527 27.705882276618297 26.99695032726366 35.28 
5943 1981 2 0.527 27.705882276618297 25.48304967273634 35.28 
5944 1982 1 -1.054 22.32 3.96 5.04 
5945 1982 2 0.527 22.9058822766183 4.716950327263661 5.04 
5946 1982 2 0.527 22.9058822766183 3.2030496727363387 5.04 
5947 1983 1 -1.054 6.12 32.28 11.16 
5948 1983 2 0.527 6.705882276618294 33.03695032726366 11.16 
5949 1983 2 0.527 6.705882276618294 31.52304967273634 11.16 
5950 1984 1 -1.054 19.439999999999998 19.08 12.92 
5951 1984 2 0.527 20.025882276618297 19.83695032726366 12.92 
5952 1984 2 0.527 20.025882276618297 18.32304967273634 12.92 
5953 1985 1 -1.054 27.480000000000004 34.04 19.0 
5954 1985 2 0.527 28.0658822766183 34.79695032726366 19.0 
5955 1985 2 0.527 28.0658822766183 33.28304967273634 19.0 
5956 1986 1 -1.054 32.64 13.759999999999998 26.720000000000002 
5957 1986 2 0.527 33.22588227661829 14.516950327263661 26.720000000000002 
5958 1986 2 0.527 33.22588227661829 13.003049672736338 26.720000000000002 
5959 1987 1 -1.054 22.0 8.56 34.96 
5960 1987 2 0.527 22.5858822766183 9.316950327263662 34.96 
5961 1987 2 0.527 22.5858822766183 7.803049672736338 34.96 
5962 1988 1 -1.054 1.48 29.4 12.64 
5963 1988 2 0.527 2.0658822766182947 30.15695032726366 12.64 
5964 1988 2 0.527 2.0658822766182947 28.64304967273634 12.64 
5965 1989 1 -1.054 28.68 9.040000000000001 37.2 
5966 1989 2 0.527 29.265882276618296 9.796950327263662 37.2 
5967 1989 2 0.527 29.265882276618296 8.28304967273634 37.2 
5968 1990 1 -1.054 14.6 37.04 8.84 
5969 1990 2 0.527 15.185882276618294 37.796950327263666 8.84 
5970 1990 2 0.527 15.185882276618294 36.28304967273634 8.84 
5971 1991 1 -1.054 25.52 17.12 17.32 
5972 1991 2 0.527 26.105882276618296 17.87695032726366 17.32 
5973 1991 2 0.527 26.105882276618296 16.363049672736338 17.32 
5974 1992 1 -1.054 22.040000000000003 28.32 5.76 
5975 1992 2 0.527 22.6258822766183 29.07695032726366 5.76 
5976 1992 2 0.527 22.6258822766183 27.563049672736337 5.76 
5977 1993 1 -1.054 30.48 35.72 4.96 
5978 1993 2 0.527 31.065882276618296 36.476950327263665 4.96 
5979 1993 2 0.527 31.065882276618296 34.96304967273634 4.96 
5980 1994 1 -1.054 26.64 35.08 36.28 
5981 1994 2 0.527 27.2258822766183 35.836950327263665 36.28 
5982 1994 2 0.527 27.2258822766183 34.32304967273634 36.28 
5983 1995 1 -1.054 25.72 19.84 15.96 
5984 1995 2 0.527 26.3058822766183 20.596950327263663 15.96 
5985 1995 2 0.527 26.3058822766183 19.083049672736337 15.96 
5986 1996 1 -1.054 35.84 32.480000000000004 24.92 
5987 1996 2 0.527 36.425882276618296 33.23695032726366 24.92 
5988 1996 2 0.527 36.425882276618296 31.72304967273634 24.92 
5989 1997 1 -1.054 29.759999999999998 25.8 23.36 
5990 1997 2 0.527 30.345882276618298 26.556950327263664 23.36 
5991 1997 2 0.527 30.345882276618298 25.043049672736338 23.36 
5992 1998 1 -1.054 20.880000000000003 4.8 17.2 
5993 1998 2 0.527 21.4658822766183 5.556950327263661 17.2 
5994 1998 2 0.527 21.4658822766183 4.0430496727363385 17.2 
5995 1999 1 -1.054 28.0 38.199999999999996 7.880000000000001 
5996 1999 2 0.527 28.585882276618296 38.95695032726366 7.880000000000001 
5997 1999 2 0.527 28.585882276618296 37.443049672736336 7.880000000000001 
5998 2000 1 -1.054 31.560000000000002 16.84 15.280000000000001 
5999 2000 2 0.527 32.145882276618295 17.59695032726366 15.280000000000001 
6000 2000 2 0.527 32.145882276618295 16.083049672736337 15.280000000000001 

Bonds

1 1 1 2 
2 1 1 3 
3 1 4 5 
4 1 4 6 
5 1 7 8 
6 1 7 9 
7 1 10 11 
8 1 10 12 
9 1 13 14 
10 1 13 15 
11 1 16 17 
12 1 16 18 
13 1 19 20 
14 1 19 21 
15 1 22 23 
16 1 22 24 
17 1 25 26 
18 1 25 27 
19 1 28 29 
20 1 28 30 
21 1 31 32 
22 1 31 33 
23 1 34 35 
24 1 34 36 
25 1 37 38 
26 1 37 39 
27 1 40 41 
28 1 40 42 
29 1 43 44 
30 1 43 45 
31 1 46 47 
32 1 46 48 
33 1 49 50 
34 1 49 51 
35 1 52 53 
36 1 52 54 
37 1 55 56 
38 1 55 57 
39 1 58 59 
40 1 58 60 
41 1 61 62 
42 1 61 63 
43 1 64 65 
44 1 64 66 
45 1 67 68 
46 1 67 69 
47 1 70 71 
48 1 70 72 
49 1 73 74 
50 1 73 75 
51 1 76 77 
52 1 76 78 
53 1 79 80 
54 1 79 81 
55 1 82 83 
56 1 82 84 
57 1 85 86 
58 1 85 87 
59 1 88 89 
60 1 88 90 
61 1 91 92 
62 1 91 93 
63 1 94 95 
64 1 94 96 
65 1 97 98 
66 1 97 99 
67 1 100 101 
68 1 100 102 
69 1 103 104 
70 1 103 105 
71 1 106 107 
72 1 106 108 
73 1 109 110 
74 1 109 111 
75 1 112 113 
76 1 112 114 
77 1 115 116 
78 1 115 117 
79 1 118 119 
80 1 118 120 
81 1 121 122 
82 1 121 123 
83 1 124 125 
84 1 124 126 
85 1 127 128 
86 1 127 129 
87 1 130 131 
88 1 130 132 
89 1 133 134 
90 1 133 135 
91 1 136 137 
92 1 136 138 
93 1 139 140 
94 1 139 141 
95 1 142 143 
96 1 142 144 
97 1 145 146 
98 1 145 147 
99 1 148 149 
100 1 148 150 
101 1 151 152 
102 1 151 153 
103 1 154 155 
104 1 154 156 
105 1 157 158 
106 1 157 159 
107 1 160 161 
108 1 160 162 
109 1 163 164 
110 1 163 165 
111 1 166 167 
112 1 166 168 
113 1 169 170 
114 1 169 171 
115 1 172 173 
116 1 172 174 
117 1 175 176 
118 1 175 177 
119 1 178 179 
120 1 178 180 
121 1 181 182 
122 1 181 183 
123 1 184 185 
124 1 184 186 
125 1 187 188 
126 1 187 189 
127 1 190 191 
128 1 190 192 
129 1 193 194 
130 1 193 195 
131 1 196 197 
132 1 196 198 
133 1 199 200 
134 1 199 201 
135 1 202 203 
136 1 202 204 
137 1 205 206 
138 1 205 207 
139 1 208 209 
140 1 208 210 
141 1 211 212 
142 1 211 213 
143 1 214 215 
144 1 214 216 
145 1 217 218 
146 1 217 219 
147 1 220 221 
148 1 220 222 
149 1 223 224 
150 1 223 225 
151 1 226 227 
152 1 226 228 
153 1 229 230 
154 1 229 231 
155 1 232 233 
156 1 232 234 
157 1 235 236 
158 1 235 237 
159 1 238 239 
160 1 238 240 
161 1 241 242 
162 1 241 243 
163 1 244 245 
164 1 244 246 
165 1 247 248 
166 1 247 249 
167 1 250 251 
168 1 250 252 
169 1 253 254 
170 1 253 255 
171 1 256 257 
172 1 256 258 
173 1 259 260 
174 1 259 261 
175 1 262 263 
176 1 262 264 
177 1 265 266 
178 1 265 267 
179 1 268 269 
180 1 268 270 
181 1 271 272 
182 1 271 273 
183 1 274 275 
184 1 274 276 
185 1 277 278 
186 1 277 279 
187 1 280 281 
188 1 280 282 
189 1 283 284 
190 1 283 285 
191 1 286 287 
192 1 286 288 
193 1 289 290 
194 1 289 291 
195 1 292 293 
196 1 292 294 
197 1 295 296 
198 1 295 297 
199 1 298 299 
200 1 298 300 
201 1 301 302 
202 1 301 303 
203 1 304 305 
204 1 304 306 
205 1 307 308 
206 1 307 309 
207 1 310 311 
208 1 310 312 
209 1 313 314 
210 1 313 315 
211 1 316 317 
212 1 316 318 
213 1 319 320 
214 1 319 321 
215 1 322 323 
216 1 322 324 
217 1 325 326 
218 1 325 327 
219 1 328 329 
220 1 328 330 
221 1 331 332 
222 1 331 333 
223 1 334 335 
224 1 334 336 
225 1 337 338 
226 1 337 339 
227 1 340 341 
228 1 340 342 
229 1 343 344 
230 1 343 345 
231 1 346 347 
232 1 346 348 
233 1 349 350 
234 1 349 351 
235 1 352 353 
236 1 352 354 
237 1 355 356 
238 1 355 357 
239 1 358 359 
240 1 358 360 
241 1 361 362 
242 1 361 363 
243 1 364 365 
244 1 364 366 
245 1 367 368 
246 1 367 369 
247 1 370 371 
248 1 370 372 
249 1 373 374 
250 1 373 375 
251 1 376 377 
252 1 376 378 
253 1 379 380 
254 1 379 381 
255 1 382 383 
256 1 382 384 
257 1 385 386 
258 1 385 387 
259 1 388 389 
260 1 388 390 
261 1 391 392 
262 1 391 393 
263 1 394 395 
264 1 394 396 
265 1 397 398 
266 1 397 399 
267 1 400 401 
268 1 400 402 
269 1 403 404 
270 1 403 405 
271 1 406 407 
272 1 406 408 
273 1 409 410 
274 1 409 411 
275 1 412 413 
276 1 412 414 
277 1 415 416 
278 1 415 417 
279 1 418 419 
280 1 418 420 
281 1 421 422 
282 1 421 423 
283 1 424 425 
284 1 424 426 
285 1 427 428 
286 1 427 429 
287 1 430 431 
288 1 430 432 
289 1 433 434 
290 1 433 435 
291 1 436 437 
292 1 436 438 
293 1 439 440 
294 1 439 441 
295 1 442 443 
296 1 442 444 
297 1 445 446 
298 1 445 447 
299 1 448 449 
300 1 448 450 
301 1 451 452 
302 1 451 453 
303 1 454 455 
304 1 454 456 
305 1 457 458 
306 1 457 459 
307 1 460 461 
308 1 460 462 
309 1 463 464 
310 1 463 465 
311 1 466 467 
312 1 466 468 
313 1 469 470 
314 1 469 471 
315 1 472 473 
316 1 472 474 
317 1 475 476 
318 1 475 477 
319 1 478 479 
320 1 478 480 
321 1 481 482 
322 1 481 483 
323 1 484 485 
324 1 484 486 
325 1 487 488 
326 1 487 489 
327 1 490 491 
328 1 490 492 
329 1 493 494 
330 1 493 495 
331 1 496 497 
332 1 496 498 
333 1 499 500 
334 1 499 501 
335 1 502 503 
336 1 502 504 
337 1 505 506 
338 1 505 507 
339 1 508 509 
340 1 508 510 
341 1 511 512 
342 1 511 513 
343 1 514 515 
344 1 514 516 
345 1 517 518 
346 1 517 519 
347 1 520 521 
348 1 520 522 
349 1 523 524 
350 1 523 525 
351 1 526 527 
352 1 526 528 
353 1 529 530 
354 1 529 531 
355 1 532 533 
356 1 532 534 
357 1 535 536 
358 1 535 537 
359 1 538 539 
360 1 538 540 
361 1 541 542 
362 1 541 543 
363 1 544 545 
364 1 544 546 
365 1 547 548 
366 1 547 549 
367 1 550 551 
368 1 550 552 
369 1 553 554 
370 1 553 555 
371 1 556 557 
372 1 556 558 
373 1 559 560 
374 1 559 561 
375 1 562 563 
376 1 562 564 
377 1 565 566 
378 1 565 567 
379 1 568 569 
380 1 568 570 
381 1 571 572 
382 1 571 573 
383 1 574 575 
384 1 574 576 
385 1 577 578 
386 1 577 579 
387 1 580 581 
388 1 580 582 
389 1 583 584 
390 1 583 585 
391 1 586 587 
392 1 586 588 
393 1 589 590 
394 1 589 591 
395 1 592 593 
396 1 592 594 
397 1 595 596 
398 1 595 597 
399 1 598 599 
400 1 598 600 
401 1 601 602 
402 1 601 603 
403 1 604 605 
404 1 604 606 
405 1 607 608 
406 1 607 609 
407 1 610 611 
408 1 610 612 
409 1 613 614 
410 1 613 615 
411 1 616 617 
412 1 616 618 
413 1 619 620 
414 1 619 621 
415 1 622 623 
416 1 622 624 
417 1 625 626 
418 1 625 627 
419 1 628 629 
420 1 628 630 
421 1 631 632 
422 1 631 633 
423 1 634 635 
424 1 634 636 
425 1 637 638 
426 1 637 639 
427 1 640 641 
428 1 640 642 
429 1 643 644 
430 1 643 645 
431 1 646 647 
432 1 646 648 
433 1 649 650 
434 1 649 651 
435 1 652 653 
436 1 652 654 
437 1 655 656 
438 1 655 657 
439 1 658 659 
440 1 658 660 
441 1 661 662 
442 1 661 663 
443 1 664 665 
444 1 664 666 
445 1 667 668 
446 1 667 669 
447 1 670 671 
448 1 670 672 
449 1 673 674 
450 1 673 675 
451 1 676 677 
452 1 676 678 
453 1 679 680 
454 1 679 681 
455 1 682 683 
456 1 682 684 
457 1 685 686 
458 1 685 687 
459 1 688 689 
460 1 688 690 
461 1 691 692 
462 1 691 693 
463 1 694 695 
464 1 694 696 
465 1 697 698 
466 1 697 699 
467 1 700 701 
468 1 700 702 
469 1 703 704 
470 1 703 705 
471 1 706 707 
472 1 706 708 
473 1 709 710 
474 1 709 711 
475 1 712 713 
476 1 712 714 
477 1 715 716 
478 1 715 717 
479 1 718 719 
480 1 718 720 
481 1 721 722 
482 1 721 723 
483 1 724 725 
484 1 724 726 
485 1 727 728 
486 1 727 729 
487 1 730 731 
488 1 730 732 
489 1 733 734 
490 1 733 735 
491 1 736 737 
492 1 736 738 
493 1 739 740 
494 1 739 741 
495 1 742 743 
496 1 742 744 
497 1 745 746 
498 1 745 747 
499 1 748 749 
500 1 748 750 
501 1 751 752 
502 1 751 753 
503 1 754 755 
504 1 754 756 
505 1 757 758 
506 1 757 759 
507 1 760 761 
508 1 760 762 
509 1 763 764 
510 1 763 765 
511 1 766 767 
512 1 766 768 
513 1 769 770 
514 1 769 771 
515 1 772 773 
516 1 772 774 
517 1 775 776 
518 1 775 777 
519 1 778 779 
520 1 778 780 
521 1 781 782 
522 1 781 783 
523 1 784 785 
524 1 784 786 
525 1 787 788 
526 1 787 789 
527 1 790 791 
528 1 790 792 
529 1 793 794 
530 1 793 795 
531 1 796 797 
532 1 796 798 
533 1 799 800 
534 1 799 801 
535 1 802 803 
536 1 802 804 
537 1 805 806 
538 1 805 807 
539 1 808 809 
540 1 808 810 
541 1 811 812 
542 1 811 813 
543 1 814 815 
544 1 814 816 
545 1 817 818 
546 1 817 819 
547 1 820 821 
548 1 820 822 
549 1 823 824 
550 1 823 825 
551 1 826 827 
552 1 826 828 
553 1 829 830 
554 1 829 831 
555 1 832 833 
556 1 832 834 
557 1 835 836 
558 1 835 837 
559 1 838 839 
560 1 838 840 
561 1 841 842 
562 1 841 843 
563 1 844 845 
564 1 844 846 
565 1 847 848 
566 1 847 849 
567 1 850 851 
568 1 850 852 
569 1 853 854 
570 1 853 855 
571 1 856 857 
572 1 856 858 
573 1 859 860 
574 1 859 861 
575 1 862 863 
576 1 862 864 
577 1 865 866 
578 1 865 867 
579 1 868 869 
580 1 868 870 
581 1 871 872 
582 1 871 873 
583 1 874 875 
584 1 874 876 
585 1 877 878 
586 1 877 879 
587 1 880 881 
588 1 880 882 
589 1 883 884 
590 1 883 885 
591 1 886 887 
592 1 886 888 
593 1 889 890 
594 1 889 891 
595 1 892 893 
596 1 892 894 
597 1 895 896 
598 1 895 897 
599 1 898 899 
600 1 898 900 
601 1 901 902 
602 1 901 903 
603 1 904 905 
604 1 904 906 
605 1 907 908 
606 1 907 909 
607 1 910 911 
608 1 910 912 
609 1 913 914 
610 1 913 915 
611 1 916 917 
612 1 916 918 
613 1 919 920 
614 1 919 921 
615 1 922 923 
616 1 922 924 
617 1 925 926 
618 1 925 927 
619 1 928 929 
620 1 928 930 
621 1 931 932 
622 1 931 933 
623 1 934 935 
624 1 934 936 
625 1 937 938 
626 1 937 939 
627 1 940 941 
628 1 940 942 
629 1 943 944 
630 1 943 945 
631 1 946 947 
632 1 946 948 
633 1 949 950 
634 1 949 951 
635 1 952 953 
636 1 952 954 
637 1 955 956 
638 1 955 957 
639 1 958 959 
640 1 958 960 
641 1 961 962 
642 1 961 963 
643 1 964 965 
644 1 964 966 
645 1 967 968 
646 1 967 969 
647 1 970 971 
648 1 970 972 
649 1 973 974 
650 1 973 975 
651 1 976 977 
652 1 976 978 
653 1 979 980 
654 1 979 981 
655 1 982 983 
656 1 982 984 
657 1 985 986 
658 1 985 987 
659 1 988 989 
660 1 988 990 
661 1 991 992 
662 1 991 993 
663 1 994 995 
664 1 994 996 
665 1 997 998 
666 1 997 999 
667 1 1000 1001 
668 1 1000 1002 
669 1 1003 1004 
670 1 1003 1005 
671 1 1006 1007 
672 1 1006 1008 
673 1 1009 1010 
674 1 1009 1011 
675 1 1012 1013 
676 1 1012 1014 
677 1 1015 1016 
678 1 1015 1017 
679 1 1018 1019 
680 1 1018 1020 
681 1 1021 1022 
682 1 1021 1023 
683 1 1024 1025 
684 1 1024 1026 
685 1 1027 1028 
686 1 1027 1029 
687 1 1030 1031 
688 1 1030 1032 
689 1 1033 1034 
690 1 1033 1035 
691 1 1036 1037 
692 1 1036 1038 
693 1 1039 1040 
694 1 1039 1041 
695 1 1042 1043 
696 1 1042 1044 
697 1 1045 1046 
698 1 1045 1047 
699 1 1048 1049 
700 1 1048 1050 
701 1 1051 1052 
702 1 1051 1053 
703 1 1054 1055 
704 1 1054 1056 
705 1 1057 1058 
706 1 1057 1059 
707 1 1060 1061 
708 1 1060 1062 
709 1 1063 1064 
710 1 1063 1065 
711 1 1066 1067 
712 1 1066 1068 
713 1 1069 1070 
714 1 1069 1071 
715 1 1072 1073 
716 1 1072 1074 
717 1 1075 1076 
718 1 1075 1077 
719 1 1078 1079 
720 1 1078 1080 
721 1 1081 1082 
722 1 1081 1083 
723 1 1084 1085 
724 1 1084 1086 
725 1 1087 1088 
726 1 1087 1089 
727 1 1090 1091 
728 1 1090 1092 
729 1 1093 1094 
730 1 1093 1095 
731 1 1096 1097 
732 1 1096 1098 
733 1 1099 1100 
734 1 1099 1101 
735 1 1102 1103 
736 1 1102 1104 
737 1 1105 1106 
738 1 1105 1107 
739 1 1108 1109 
740 1 1108 1110 
741 1 1111 1112 
742 1 1111 1113 
743 1 1114 1115 
744 1 1114 1116 
745 1 1117 1118 
746 1 1117 1119 
747 1 1120 1121 
748 1 1120 1122 
749 1 1123 1124 
750 1 1123 1125 
751 1 1126 1127 
752 1 1126 1128 
753 1 1129 1130 
754 1 1129 1131 
755 1 1132 1133 
756 1 1132 1134 
757 1 1135 1136 
758 1 1135 1137 
759 1 1138 1139 
760 1 1138 1140 
761 1 1141 1142 
762 1 1141 1143 
763 1 1144 1145 
764 1 1144 1146 
765 1 1147 1148 
766 1 1147 1149 
767 1 1150 1151 
768 1 1150 1152 
769 1 1153 1154 
770 1 1153 1155 
771 1 1156 1157 
772 1 1156 1158 
773 1 1159 1160 
774 1 1159 1161 
775 1 1162 1163 
776 1 1162 1164 
777 1 1165 1166 
778 1 1165 1167 
779 1 1168 1169 
780 1 1168 1170 
781 1 1171 1172 
782 1 1171 1173 
783 1 1174 1175 
784 1 1174 1176 
785 1 1177 1178 
786 1 1177 1179 
787 1 1180 1181 
788 1 1180 1182 
789 1 1183 1184 
790 1 1183 1185 
791 1 1186 1187 
792 1 1186 1188 
793 1 1189 1190 
794 1 1189 1191 
795 1 1192 1193 
796 1 1192 1194 
797 1 1195 1196 
798 1 1195 1197 
799 1 1198 1199 
800 1 1198 1200 
801 1 1201 1202 
802 1 1201 1203 
803 1 1204 1205 
804 1 1204 1206 
805 1 1207 1208 
806 1 1207 1209 
807 1 1210 1211 
808 1 1210 1212 
809 1 1213 1214 
810 1 1213 1215 
811 1 1216 1217 
812 1 1216 1218 
813 1 1219 1220 
814 1 1219 1221 
815 1 1222 1223 
816 1 1222 1224 
817 1 1225 1226 
818 1 1225 1227 
819 1 1228 1229 
820 1 1228 1230 
821 1 1231 1232 
822 1 1231 1233 
823 1 1234 1235 
824 1 1234 1236 
825 1 1237 1238 
826 1 1237 1239 
827 1 1240 1241 
828 1 1240 1242 
829 1 1243 1244 
830 1 1243 1245 
831 1 1246 1247 
832 1 1246 1248 
833 1 1249 1250 
834 1 1249 1251 
835 1 1252 1253 
836 1 1252 1254 
837 1 1255 1256 
838 1 1255 1257 
839 1 1258 1259 
840 1 1258 1260 
841 1 1261 1262 
842 1 1261 1263 
843 1 1264 1265 
844 1 1264 1266 
845 1 1267 1268 
846 1 1267 1269 
847 1 1270 1271 
848 1 1270 1272 
849 1 1273 1274 
850 1 1273 1275 
851 1 1276 1277 
852 1 1276 1278 
853 1 1279 1280 
854 1 1279 1281 
855 1 1282 1283 
856 1 1282 1284 
857 1 1285 1286 
858 1 1285 1287 
859 1 1288 1289 
860 1 1288 1290 
861 1 1291 1292 
862 1 1291 1293 
863 1 1294 1295 
864 1 1294 1296 
865 1 1297 1298 
866 1 1297 1299 
867 1 1300 1301 
868 1 1300 1302 
869 1 1303 1304 
870 1 1303 1305 
871 1 1306 1307 
872 1 1306 1308 
873 1 1309 1310 
874 1 1309 1311 
875 1 1312 1313 
876 1 1312 1314 
877 1 1315 1316 
878 1 1315 1317 
879 1 1318 1319 
880 1 1318 1320 
881 1 1321 1322 
882 1 1321 1323 
883 1 1324 1325 
884 1 1324 1326 
885 1 1327 1328 
886 1 1327 1329 
887 1 1330 1331 
888 1 1330 1332 
889 1 1333 1334 
890 1 1333 1335 
891 1 1336 1337 
892 1 1336 1338 
893 1 1339 1340 
894 1 1339 1341 
895 1 1342 1343 
896 1 1342 1344 
897 1 1345 1346 
898 1 1345 1347 
899 1 1348 1349 
900 1 1348 1350 
901 1 1351 1352 
902 1 1351 1353 
903 1 1354 1355 
904 1 1354 1356 
905 1 1357 1358 
906 1 1357 1359 
907 1 1360 1361 
908 1 1360 1362 
909 1 1363 1364 
910 1 1363 1365 
911 1 1366 1367 
912 1 1366 1368 
913 1 1369 1370 
914 1 1369 1371 
915 1 1372 1373 
916 1 1372 1374 
917 1 1375 1376 
918 1 1375 1377 
919 1 1378 1379 
920 1 1378 1380 
921 1 1381 1382 
922 1 1381 1383 
923 1 1384 1385 
924 1 1384 1386 
925 1 1387 1388 
926 1 1387 1389 
927 1 1390 1391 
928 1 1390 1392 
929 1 1393 1394 
930 1 1393 1395 
931 1 1396 1397 
932 1 1396 1398 
933 1 1399 1400 
934 1 1399 1401 
935 1 1402 1403 
936 1 1402 1404 
937 1 1405 1406 
938 1 1405 1407 
939 1 1408 1409 
940 1 1408 1410 
941 1 1411 1412 
942 1 1411 1413 
943 1 1414 1415 
944 1 1414 1416 
945 1 1417 1418 
946 1 1417 1419 
947 1 1420 1421 
948 1 1420 1422 
949 1 1423 1424 
950 1 1423 1425 
951 1 1426 1427 
952 1 1426 1428 
953 1 1429 1430 
954 1 1429 1431 
955 1 1432 1433 
956 1 1432 1434 
957 1 1435 1436 
958 1 1435 1437 
959 1 1438 1439 
960 1 1438 1440 
961 1 1441 1442 
962 1 1441 1443 
963 1 1444 1445 
964 1 1444 1446 
965 1 1447 1448 
966 1 1447 1449 
967 1 1450 1451 
968 1 1450 1452 
969 1 1453 1454 
970 1 1453 1455 
971 1 1456 1457 
972 1 1456 1458 
973 1 1459 1460 
974 1 1459 1461 
975 1 1462 1463 
976 1 1462 1464 
977 1 1465 1466 
978 1 1465 1467 
979 1 1468 1469 
980 1 1468 1470 
981 1 1471 1472 
982 1 1471 1473 
983 1 1474 1475 
984 1 1474 1476 
985 1 1477 1478 
986 1 1477 1479 
987 1 1480 1481 
988 1 1480 1482 
989 1 1483 1484 
990 1 1483 1485 
991 1 1486 1487 
992 1 1486 1488 
993 1 1489 1490 
994 1 1489 1491 
995 1 1492 1493 
996 1 1492 1494 
997 1 1495 1496 
998 1 1495 1497 
999 1 1498 1499 
1000 1 1498 1500 
1001 1 1501 1502 
1002 1 1501 1503 
1003 1 1504 1505 
1004 1 1504 1506 
1005 1 1507 1508 
1006 1 1507 1509 
1007 1 1510 1511 
1008 1 1510 1512 
1009 1 1513 1514 
1010 1 1513 1515 
1011 1 1516 1517 
1012 1 1516 1518 
1013 1 1519 1520 
1014 1 1519 1521 
1015 1 1522 1523 
1016 1 1522 1524 
1017 1 1525 1526 
1018 1 1525 1527 
1019 1 1528 1529 
1020 1 1528 1530 
1021 1 1531 1532 
1022 1 1531 1533 
1023 1 1534 1535 
1024 1 1534 1536 
1025 1 1537 1538 
1026 1 1537 1539 
1027 1 1540 1541 
1028 1 1540 1542 
1029 1 1543 1544 
1030 1 1543 1545 
1031 1 1546 1547 
1032 1 1546 1548 
1033 1 1549 1550 
1034 1 1549 1551 
1035 1 1552 1553 
1036 1 1552 1554 
1037 1 1555 1556 
1038 1 1555 1557 
1039 1 1558 1559 
1040 1 1558 1560 
1041 1 1561 1562 
1042 1 1561 1563 
1043 1 1564 1565 
1044 1 1564 1566 
1045 1 1567 1568 
1046 1 1567 1569 
1047 1 1570 1571 
1048 1 1570 1572 
1049 1 1573 1574 
1050 1 1573 1575 
1051 1 1576 1577 
1052 1 1576 1578 
1053 1 1579 1580 
1054 1 1579 1581 
1055 1 1582 1583 
1056 1 1582 1584 
1057 1 1585 1586 
1058 1 1585 1587 
1059 1 1588 1589 
1060 1 1588 1590 
1061 1 1591 1592 
1062 1 1591 1593 
1063 1 1594 1595 
1064 1 1594 1596 
1065 1 1597 1598 
1066 1 1597 1599 
1067 1 1600 1601 
1068 1 1600 1602 
1069 1 1603 1604 
1070 1 1603 1605 
1071 1 1606 1607 
1072 1 1606 1608 
1073 1 1609 1610 
1074 1 1609 1611 
1075 1 1612 1613 
1076 1 1612 1614 
1077 1 1615 1616 
1078 1 1615 1617 
1079 1 1618 1619 
1080 1 1618 1620 
1081 1 1621 1622 
1082 1 1621 1623 
1083 1 1624 1625 
1084 1 1624 1626 
1085 1 1627 1628 
1086 1 1627 1629 
1087 1 1630 1631 
1088 1 1630 1632 
1089 1 1633 1634 
1090 1 1633 1635 
1091 1 1636 1637 
1092 1 1636 1638 
1093 1 1639 1640 
1094 1 1639 1641 
1095 1 1642 1643 
1096 1 1642 1644 
1097 1 1645 1646 
1098 1 1645 1647 
1099 1 1648 1649 
1100 1 1648 1650 
1101 1 1651 1652 
1102 1 1651 1653 
1103 1 1654 1655 
1104 1 1654 1656 
1105 1 1657 1658 
1106 1 1657 1659 
1107 1 1660 1661 
1108 1 1660 1662 
1109 1 1663 1664 
1110 1 1663 1665 
1111 1 1666 1667 
1112 1 1666 1668 
1113 1 1669 1670 
1114 1 1669 1671 
1115 1 1672 1673 
1116 1 1672 1674 
1117 1 1675 1676 
1118 1 1675 1677 
1119 1 1678 1679 
1120 1 1678 1680 
1121 1 1681 1682 
1122 1 1681 1683 
1123 1 1684 1685 
1124 1 1684 1686 
1125 1 1687 1688 
1126 1 1687 1689 
1127 1 1690 1691 
1128 1 1690 1692 
1129 1 1693 1694 
1130 1 1693 1695 
1131 1 1696 1697 
1132 1 1696 1698 
1133 1 1699 1700 
1134 1 1699 1701 
1135 1 1702 1703 
1136 1 1702 1704 
1137 1 1705 1706 
1138 1 1705 1707 
1139 1 1708 1709 
1140 1 1708 1710 
1141 1 1711 1712 
1142 1 1711 1713 
1143 1 1714 1715 
1144 1 1714 1716 
1145 1 1717 1718 
1146 1 1717 1719 
1147 1 1720 1721 
1148 1 1720 1722 
1149 1 1723 1724 
1150 1 1723 1725 
1151 1 1726 1727 
1152 1 1726 1728 
1153 1 1729 1730 
1154 1 1729 1731 
1155 1 1732 1733 
1156 1 1732 1734 
1157 1 1735 1736 
1158 1 1735 1737 
1159 1 1738 1739 
1160 1 1738 1740 
1161 1 1741 1742 
1162 1 1741 1743 
1163 1 1744 1745 
1164 1 1744 1746 
1165 1 1747 1748 
1166 1 1747 1749 
1167 1 1750 1751 
1168 1 1750 1752 
1169 1 1753 1754 
1170 1 1753 1755 
1171 1 1756 1757 
1172 1 1756 1758 
1173 1 1759 1760 
1174 1 1759 1761 
1175 1 1762 1763 
1176 1 1762 1764 
1177 1 1765 1766 
1178 1 1765 1767 
1179 1 1768 1769 
1180 1 1768 1770 
1181 1 1771 1772 
1182 1 1771 1773 
1183 1 1774 1775 
1184 1 1774 1776 
1185 1 1777 1778 
1186 1 1777 1779 
1187 1 1780 1781 
1188 1 1780 1782 
1189 1 1783 1784 
1190 1 1783 1785 
1191 1 1786 1787 
1192 1 1786 1788 
1193 1 1789 1790 
1194 1 1789 1791 
1195 1 1792 1793 
1196 1 1792 1794 
1197 1 1795 1796 
1198 1 1795 1797 
1199 1 1798 1799 
1200 1 1798 1800 
1201 1 1801 1802 
1202 1 1801 1803 
1203 1 1804 1805 
1204 1 1804 1806 
1205 1 1807 1808 
1206 1 1807 1809 
1207 1 1810 1811 
1208 1 1810 1812 
1209 1 1813 1814 
1210 1 1813 1815 
1211 1 1816 1817 
1212 1 1816 1818 
1213 1 1819 1820 
1214 1 1819 1821 
1215 1 1822 1823 
1216 1 1822 1824 
1217 1 1825 1826 
1218 1 1825 1827 
1219 1 1828 1829 
1220 1 1828 1830 
1221 1 1831 1832 
1222 1 1831 1833 
1223 1 1834 1835 
1224 1 1834 1836 
1225 1 1837 1838 
1226 1 1837 1839 
1227 1 1840 1841 
1228 1 1840 1842 
1229 1 1843 1844 
1230 1 1843 1845 
1231 1 1846 1847 
1232 1 1846 1848 
1233 1 1849 1850 
1234 1 1849 1851 
1235 1 1852 1853 
1236 1 1852 1854 
1237 1 1855 1856 
1238 1 1855 1857 
1239 1 1858 1859 
1240 1 1858 1860 
1241 1 1861 1862 
1242 1 1861 1863 
1243 1 1864 1865 
1244 1 1864 1866 
1245 1 1867 1868 
1246 1 1867 1869 
1247 1 1870 1871 
1248 1 1870 1872 
1249 1 1873 1874 
1250 1 1873 1875 
1251 1 1876 1877 
1252 1 1876 1878 
1253 1 1879 1880 
1254 1 1879 1881 
1255 1 1882 1883 
1256 1 1882 1884 
1257 1 1885 1886 
1258 1 1885 1887 
1259 1 1888 1889 
1260 1 1888 1890 
1261 1 1891 1892 
1262 1 1891 1893 
1263 1 1894 1895 
1264 1 1894 1896 
1265 1 1897 1898 
1266 1 1897 1899 
1267 1 1900 1901 
1268 1 1900 1902 
1269 1 1903 1904 
1270 1 1903 1905 
1271 1 1906 1907 
1272 1 1906 1908 
1273 1 1909 1910 
1274 1 1909 1911 
1275 1 1912 1913 
1276 1 1912 1914 
1277 1 1915 1916 
1278 1 1915 1917 
1279 1 1918 1919 
1280 1 1918 1920 
1281 1 1921 1922 
1282 1 1921 1923 
1283 1 1924 1925 
1284 1 1924 1926 
1285 1 1927 1928 
1286 1 1927 1929 
1287 1 1930 1931 
1288 1 1930 1932 
1289 1 1933 1934 
1290 1 1933 1935 
1291 1 1936 1937 
1292 1 1936 1938 
1293 1 1939 1940 
1294 1 1939 1941 
1295 1 1942 1943 
1296 1 1942 1944 
1297 1 1945 1946 
1298 1 1945 1947 
1299 1 1948 1949 
1300 1 1948 1950 
1301 1 1951 1952 
1302 1 1951 1953 
1303 1 1954 1955 
1304 1 1954 1956 
1305 1 1957 1958 
1306 1 1957 1959 
1307 1 1960 1961 
1308 1 1960 1962 
1309 1 1963 1964 
1310 1 1963 1965 
1311 1 1966 1967 
1312 1 1966 1968 
1313 1 1969 1970 
1314 1 1969 1971 
1315 1 1972 1973 
1316 1 1972 1974 
1317 1 1975 1976 
1318 1 1975 1977 
1319 1 1978 1979 
1320 1 1978 1980 
1321 1 1981 1982 
1322 1 1981 1983 
1323 1 1984 1985 
1324 1 1984 1986 
1325 1 1987 1988 
1326 1 1987 1989 
1327 1 1990 1991 
1328 1 1990 1992 
1329 1 1993 1994 
1330 1 1993 1995 
1331 1 1996 1997 
1332 1 1996 1998 
1333 1 1999 2000 
1334 1 1999 2001 
1335 1 2002 2003 
1336 1 2002 2004 
1337 1 2005 2006 
1338 1 2005 2007 
1339 1 2008 2009 
1340 1 2008 2010 
1341 1 2011 2012 
1342 1 2011 2013 
1343 1 2014 2015 
1344 1 2014 2016 
1345 1 2017 2018 
1346 1 2017 2019 
1347 1 2020 2021 
1348 1 2020 2022 
1349 1 2023 2024 
1350 1 2023 2025 
1351 1 2026 2027 
1352 1 2026 2028 
1353 1 2029 2030 
1354 1 2029 2031 
1355 1 2032 2033 
1356 1 2032 2034 
1357 1 2035 2036 
1358 1 2035 2037 
1359 1 2038 2039 
1360 1 2038 2040 
1361 1 2041 2042 
1362 1 2041 2043 
1363 1 2044 2045 
1364 1 2044 2046 
1365 1 2047 2048 
1366 1 2047 2049 
1367 1 2050 2051 
1368 1 2050 2052 
1369 1 2053 2054 
1370 1 2053 2055 
1371 1 2056 2057 
1372 1 2056 2058 
1373 1 2059 2060 
1374 1 2059 2061 
1375 1 2062 2063 
1376 1 2062 2064 
1377 1 2065 2066 
1378 1 2065 2067 
1379 1 2068 2069 
1380 1 2068 2070 
1381 1 2071 2072 
1382 1 2071 2073 
1383 1 2074 2075 
1384 1 2074 2076 
1385 1 2077 2078 
1386 1 2077 2079 
1387 1 2080 2081 
1388 1 2080 2082 
1389 1 2083 2084 
1390 1 2083 2085 
1391 1 2086 2087 
1392 1 2086 2088 
1393 1 2089 2090 
1394 1 2089 2091 
1395 1 2092 2093 
1396 1 2092 2094 
1397 1 2095 2096 
1398 1 2095 2097 
1399 1 2098 2099 
1400 1 2098 2100 
1401 1 2101 2102 
1402 1 2101 2103 
1403 1 2104 2105 
1404 1 2104 2106 
1405 1 2107 2108 
1406 1 2107 2109 
1407 1 2110 2111 
1408 1 2110 2112 
1409 1 2113 2114 
1410 1 2113 2115 
1411 1 2116 2117 
1412 1 2116 2118 
1413 1 2119 2120 
1414 1 2119 2121 
1415 1 2122 2123 
1416 1 2122 2124 
1417 1 2125 2126 
1418 1 2125 2127 
1419 1 2128 2129 
1420 1 2128 2130 
1421 1 2131 2132 
1422 1 2131 2133 
1423 1 2134 2135 
1424 1 2134 2136 
1425 1 2137 2138 
1426 1 2137 2139 
1427 1 2140 2141 
1428 1 2140 2142 
1429 1 2143 2144 
1430 1 2143 2145 
1431 1 2146 2147 
1432 1 2146 2148 
1433 1 2149 2150 
1434 1 2149 2151 
1435 1 2152 2153 
1436 1 2152 2154 
1437 1 2155 2156 
1438 1 2155 2157 
1439 1 2158 2159 
1440 1 2158 2160 
1441 1 2161 2162 
1442 1 2161 2163 
1443 1 2164 2165 
1444 1 2164 2166 
1445 1 2167 2168 
1446 1 2167 2169 
1447 1 2170 2171 
1448 1 2170 2172 
1449 1 2173 2174 
1450 1 2173 2175 
1451 1 2176 2177 
1452 1 2176 2178 
1453 1 2179 2180 
1454 1 2179 2181 
1455 1 2182 2183 
1456 1 2182 2184 
1457 1 2185 2186 
1458 1 2185 2187 
1459 1 2188 2189 
1460 1 2188 2190 
1461 1 2191 2192 
1462 1 2191 2193 
1463 1 2194 2195 
1464 1 2194 2196 
1465 1 2197 2198 
1466 1 2197 2199 
1467 1 2200 2201 
1468 1 2200 2202 
1469 1 2203 2204 
1470 1 2203 2205 
1471 1 2206 2207 
1472 1 2206 2208 
1473 1 2209 2210 
1474 1 2209 2211 
1475 1 2212 2213 
1476 1 2212 2214 
1477 1 2215 2216 
1478 1 2215 2217 
1479 1 2218 2219 
1480 1 2218 2220 
1481 1 2221 2222 
1482 1 2221 2223 
1483 1 2224 2225 
1484 1 2224 2226 
1485 1 2227 2228 
1486 1 2227 2229 
1487 1 2230 2231 
1488 1 2230 2232 
1489 1 2233 2234 
1490 1 2233 2235 
1491 1 2236 2237 
1492 1 2236 2238 
1493 1 2239 2240 
1494 1 2239 2241 
1495 1 2242 2243 
1496 1 2242 2244 
1497 1 2245 2246 
1498 1 2245 2247 
1499 1 2248 2249 
1500 1 2248 2250 
1501 1 2251 2252 
1502 1 2251 2253 
1503 1 2254 2255 
1504 1 2254 2256 
1505 1 2257 2258 
1506 1 2257 2259 
1507 1 2260 2261 
1508 1 2260 2262 
1509 1 2263 2264 
1510 1 2263 2265 
1511 1 2266 2267 
1512 1 2266 2268 
1513 1 2269 2270 
1514 1 2269 2271 
1515 1 2272 2273 
1516 1 2272 2274 
1517 1 2275 2276 
1518 1 2275 2277 
1519 1 2278 2279 
1520 1 2278 2280 
1521 1 2281 2282 
1522 1 2281 2283 
1523 1 2284 2285 
1524 1 2284 2286 
1525 1 2287 2288 
1526 1 2287 2289 
1527 1 2290 2291 
1528 1 2290 2292 
1529 1 2293 2294 
1530 1 2293 2295 
1531 1 2296 2297 
1532 1 2296 2298 
1533 1 2299 2300 
1534 1 2299 2301 
1535 1 2302 2303 
1536 1 2302 2304 
1537 1 2305 2306 
1538 1 2305 2307 
1539 1 2308 2309 
1540 1 2308 2310 
1541 1 2311 2312 
1542 1 2311 2313 
1543 1 2314 2315 
1544 1 2314 2316 
1545 1 2317 2318 
1546 1 2317 2319 
1547 1 2320 2321 
1548 1 2320 2322 
1549 1 2323 2324 
1550 1 2323 2325 
1551 1 2326 2327 
1552 1 2326 2328 
1553 1 2329 2330 
1554 1 2329 2331 
1555 1 2332 2333 
1556 1 2332 2334 
1557 1 2335 2336 
1558 1 2335 2337 
1559 1 2338 2339 
1560 1 2338 2340 
1561 1 2341 2342 
1562 1 2341 2343 
1563 1 2344 2345 
1564 1 2344 2346 
1565 1 2347 2348 
1566 1 2347 2349 
1567 1 2350 2351 
1568 1 2350 2352 
1569 1 2353 2354 
1570 1 2353 2355 
1571 1 2356 2357 
1572 1 2356 2358 
1573 1 2359 2360 
1574 1 2359 2361 
1575 1 2362 2363 
1576 1 2362 2364 
1577 1 2365 2366 
1578 1 2365 2367 
1579 1 2368 2369 
1580 1 2368 2370 
1581 1 2371 2372 
1582 1 2371 2373 
1583 1 2374 2375 
1584 1 2374 2376 
1585 1 2377 2378 
1586 1 2377 2379 
1587 1 2380 2381 
1588 1 2380 2382 
1589 1 2383 2384 
1590 1 2383 2385 
1591 1 2386 2387 
1592 1 2386 2388 
1593 1 2389 2390 
1594 1 2389 2391 
1595 1 2392 2393 
1596 1 2392 2394 
1597 1 2395 2396 
1598 1 2395 2397 
1599 1 2398 2399 
1600 1 2398 2400 
1601 1 2401 2402 
1602 1 2401 2403 
1603 1 2404 2405 
1604 1 2404 2406 
1605 1 2407 2408 
1606 1 2407 2409 
1607 1 2410 2411 
1608 1 2410 2412 
1609 1 2413 2414 
1610 1 2413 2415 
1611 1 2416 2417 
1612 1 2416 2418 
1613 1 2419 2420 
1614 1 2419 2421 
1615 1 2422 2423 
1616 1 2422 2424 
1617 1 2425 2426 
1618 1 2425 2427 
1619 1 2428 2429 
1620 1 2428 2430 
1621 1 2431 2432 
1622 1 2431 2433 
1623 1 2434 2435 
1624 1 2434 2436 
1625 1 2437 2438 
1626 1 2437 2439 
1627 1 2440 2441 
1628 1 2440 2442 
1629 1 2443 2444 
1630 1 2443 2445 
1631 1 2446 2447 
1632 1 2446 2448 
1633 1 2449 2450 
1634 1 2449 2451 
1635 1 2452 2453 
1636 1 2452 2454 
1637 1 2455 2456 
1638 1 2455 2457 
1639 1 2458 2459 
1640 1 2458 2460 
1641 1 2461 2462 
1642 1 2461 2463 
1643 1 2464 2465 
1644 1 2464 2466 
1645 1 2467 2468 
1646 1 2467 2469 
1647 1 2470 2471 
1648 1 2470 2472 
1649 1 2473 2474 
1650 1 2473 2475 
1651 1 2476 2477 
1652 1 2476 2478 
1653 1 2479 2480 
1654 1 2479 2481 
1655 1 2482 2483 
1656 1 2482 2484 
1657 1 2485 2486 
1658 1 2485 2487 
1659 1 2488 2489 
1660 1 2488 2490 
1661 1 2491 2492 
1662 1 2491 2493 
1663 1 2494 2495 
1664 1 2494 2496 
1665 1 2497 2498 
1666 1 2497 2499 
1667 1 2500 2501 
1668 1 2500 2502 
1669 1 2503 2504 
1670 1 2503 2505 
1671 1 2506 2507 
1672 1 2506 2508 
1673 1 2509 2510 
1674 1 2509 2511 
1675 1 2512 2513 
1676 1 2512 2514 
1677 1 2515 2516 
1678 1 2515 2517 
1679 1 2518 2519 
1680 1 2518 2520 
1681 1 2521 2522 
1682 1 2521 2523 
1683 1 2524 2525 
1684 1 2524 2526 
1685 1 2527 2528 
1686 1 2527 2529 
1687 1 2530 2531 
1688 1 2530 2532 
1689 1 2533 2534 
1690 1 2533 2535 
1691 1 2536 2537 
1692 1 2536 2538 
1693 1 2539 2540 
1694 1 2539 2541 
1695 1 2542 2543 
1696 1 2542 2544 
1697 1 2545 2546 
1698 1 2545 2547 
1699 1 2548 2549 
1700 1 2548 2550 
1701 1 2551 2552 
1702 1 2551 2553 
1703 1 2554 2555 
1704 1 2554 2556 
1705 1 2557 2558 
1706 1 2557 2559 
1707 1 2560 2561 
1708 1 2560 2562 
1709 1 2563 2564 
1710 1 2563 2565 
1711 1 2566 2567 
1712 1 2566 2568 
1713 1 2569 2570 
1714 1 2569 2571 
1715 1 2572 2573 
1716 1 2572 2574 
1717 1 2575 2576 
1718 1 2575 2577 
1719 1 2578 2579 
1720 1 2578 2580 
1721 1 2581 2582 
1722 1 2581 2583 
1723 1 2584 2585 
1724 1 2584 2586 
1725 1 2587 2588 
1726 1 2587 2589 
1727 1 2590 2591 
1728 1 2590 2592 
1729 1 2593 2594 
1730 1 2593 2595 
1731 1 2596 2597 
1732 1 2596 2598 
1733 1 2599 2600 
1734 1 2599 2601 
1735 1 2602 2603 
1736 1 2602 2604 
1737 1 2605 2606 
1738 1 2605 2607 
1739 1 2608 2609 
1740 1 2608 2610 
1741 1 2611 2612 
1742 1 2611 2613 
1743 1 2614 2615 
1744 1 2614 2616 
1745 1 2617 2618 
1746 1 2617 2619 
1747 1 2620 2621 
1748 1 2620 2622 
1749 1 2623 2624 
1750 1 2623 2625 
1751 1 2626 2627 
1752 1 2626 2628 
1753 1 2629 2630 
1754 1 2629 2631 
1755 1 2632 2633 
1756 1 2632 2634 
1757 1 2635 2636 
1758 1 2635 2637 
1759 1 2638 2639 
1760 1 2638 2640 
1761 1 2641 2642 
1762 1 2641 2643 
1763 1 2644 2645 
1764 1 2644 2646 
1765 1 2647 2648 
1766 1 2647 2649 
1767 1 2650 2651 
1768 1 2650 2652 
1769 1 2653 2654 
1770 1 2653 2655 
1771 1 2656 2657 
1772 1 2656 2658 
1773 1 2659 2660 
1774 1 2659 2661 
1775 1 2662 2663 
1776 1 2662 2664 
1777 1 2665 2666 
1778 1 2665 2667 
1779 1 2668 2669 
1780 1 2668 2670 
1781 1 2671 2672 
1782 1 2671 2673 
1783 1 2674 2675 
1784 1 2674 2676 
1785 1 2677 2678 
1786 1 2677 2679 
1787 1 2680 2681 
1788 1 2680 2682 
1789 1 2683 2684 
1790 1 2683 2685 
1791 1 2686 2687 
1792 1 2686 2688 
1793 1 2689 2690 
1794 1 2689 2691 
1795 1 2692 2693 
1796 1 2692 2694 
1797 1 2695 2696 
1798 1 2695 2697 
1799 1 2698 2699 
1800 1 2698 2700 
1801 1 2701 2702 
1802 1 2701 2703 
1803 1 2704 2705 
1804 1 2704 2706 
1805 1 2707 2708 
1806 1 2707 2709 
1807 1 2710 2711 
1808 1 2710 2712 
1809 1 2713 2714 
1810 1 2713 2715 
1811 1 2716 2717 
1812 1 2716 2718 
1813 1 2719 2720 
1814 1 2719 2721 
1815 1 2722 2723 
1816 1 2722 2724 
1817 1 2725 2726 
1818 1 2725 2727 
1819 1 2728 2729 
1820 1 2728 2730 
1821 1 2731 2732 
1822 1 2731 2733 
1823 1 2734 2735 
1824 1 2734 2736 
1825 1 2737 2738 
1826 1 2737 2739 
1827 1 2740 2741 
1828 1 2740 2742 
1829 1 2743 2744 
1830 1 2743 2745 
1831 1 2746 2747 
1832 1 2746 2748 
1833 1 2749 2750 
1834 1 2749 2751 
1835 1 2752 2753 
1836 1 2752 2754 
1837 1 2755 2756 
1838 1 2755 2757 
1839 1 2758 2759 
1840 1 2758 2760 
1841 1 2761 2762 
1842 1 2761 2763 
1843 1 2764 2765 
1844 1 2764 2766 
1845 1 2767 2768 
1846 1 2767 2769 
1847 1 2770 2771 
1848 1 2770 2772 
1849 1 2773 2774 
1850 1 2773 2775 
1851 1 2776 2777 
1852 1 2776 2778 
1853 1 2779 2780 
1854 1 2779 2781 
1855 1 2782 2783 
1856 1 2782 2784 
1857 1 2785 2786 
1858 1 2785 2787 
1859 1 2788 2789 
1860 1 2788 2790 
1861 1 2791 2792 
1862 1 2791 2793 
1863 1 2794 2795 
1864 1 2794 2796 
1865 1 2797 2798 
1866 1 2797 2799 
1867 1 2800 2801 
1868 1 2800 2802 
1869 1 2803 2804 
1870 1 2803 2805 
1871 1 2806 2807 
1872 1 2806 2808 
1873 1 2809 2810 
1874 1 2809 2811 
1875 1 2812 2813 
1876 1 2812 2814 
1877 1 2815 2816 
1878 1 2815 2817 
1879 1 2818 2819 
1880 1 2818 2820 
1881 1 2821 2822 
1882 1 2821 2823 
1883 1 2824 2825 
1884 1 2824 2826 
1885 1 2827 2828 
1886 1 2827 2829 
1887 1 2830 2831 
1888 1 2830 2832 
1889 1 2833 2834 
1890 1 2833 2835 
1891 1 2836 2837 
1892 1 2836 2838 
1893 1 2839 2840 
1894 1 2839 2841 
1895 1 2842 2843 
1896 1 2842 2844 
1897 1 2845 2846 
1898 1 2845 2847 
1899 1 2848 2849 
1900 1 2848 2850 
1901 1 2851 2852 
1902 1 2851 2853 
1903 1 2854 2855 
1904 1 2854 2856 
1905 1 2857 2858 
1906 1 2857 2859 
1907 1 2860 2861 
1908 1 2860 2862 
1909 1 2863 2864 
1910 1 2863 2865 
1911 1 2866 2867 
1912 1 2866 2868 
1913 1 2869 2870 
1914 1 2869 2871 
1915 1 2872 2873 
1916 1 2872 2874 
1917 1 2875 2876 
1918 1 2875 2877 
1919 1 2878 2879 
1920 1 2878 2880 
1921 1 2881 2882 
1922 1 2881 2883 
1923 1 2884 2885 
1924 1 2884 2886 
1925 1 2887 2888 
1926 1 2887 2889 
1927 1 2890 2891 
1928 1 2890 2892 
1929 1 2893 2894 
1930 1 2893 2895 
1931 1 2896 2897 
1932 1 2896 2898 
1933 1 2899 2900 
1934 1 2899 2901 
1935 1 2902 2903 
1936 1 2902 2904 
1937 1 2905 2906 
1938 1 2905 2907 
1939 1 2908 2909 
1940 1 2908 2910 
1941 1 2911 2912 
1942 1 2911 2913 
1943 1 2914 2915 
1944 1 2914 2916 
1945 1 2917 2918 
1946 1 2917 2919 
1947 1 2920 2921 
1948 1 2920 2922 
1949 1 2923 2924 
1950 1 2923 2925 
1951 1 2926 2927 
1952 1 2926 2928 
1953 1 2929 2930 
1954 1 2929 2931 
1955 1 2932 2933 
1956 1 2932 2934 
1957 1 2935 2936 
1958 1 2935 2937 
1959 1 2938 2939 
1960 1 2938 2940 
1961 1 2941 2942 
1962 1 2941 2943 
1963 1 2944 2945 
1964 1 2944 2946 
1965 1 2947 2948 
1966 1 2947 2949 
1967 1 2950 2951 
1968 1 2950 2952 
1969 1 2953 2954 
1970 1 2953 2955 
1971 1 2956 2957 
1972 1 2956 2958 
1973 1 2959 2960 
1974 1 2959 2961 
1975 1 2962 2963 
1976 1 2962 2964 
1977 1 2965 2966 
1978 1 2965 2967 
1979 1 2968 2969 
1980 1 2968 2970 
1981 1 2971 2972 
1982 1 2971 2973 
1983 1 2974 2975 
1984 1 2974 2976 
1985 1 2977 2978 
1986 1 2977 2979 
1987 1 2980 2981 
1988 1 2980 2982 
1989 1 2983 2984 
1990 1 2983 2985 
1991 1 2986 2987 
1992 1 2986 2988 
1993 1 2989 2990 
1994 1 2989 2991 
1995 1 2992 2993 
1996 1 2992 2994 
1997 1 2995 2996 
1998 1 2995 2997 
1999 1 2998 2999 
2000 1 2998 3000 
2001 1 3001 3002 
2002 1 3001 3003 
2003 1 3004 3005 
2004 1 3004 3006 
2005 1 3007 3008 
2006 1 3007 3009 
2007 1 3010 3011 
2008 1 3010 3012 
2009 1 3013 3014 
2010 1 3013 3015 
2011 1 3016 3017 
2012 1 3016 3018 
2013 1 3019 3020 
2014 1 3019 3021 
2015 1 3022 3023 
2016 1 3022 3024 
2017 1 3025 3026 
2018 1 3025 3027 
2019 1 3028 3029 
2020 1 3028 3030 
2021 1 3031 3032 
2022 1 3031 3033 
2023 1 3034 3035 
2024 1 3034 3036 
2025 1 3037 3038 
2026 1 3037 3039 
2027 1 3040 3041 
2028 1 3040 3042 
2029 1 3043 3044 
2030 1 3043 3045 
2031 1 3046 3047 
2032 1 3046 3048 
2033 1 3049 3050 
2034 1 3049 3051 
2035 1 3052 3053 
2036 1 3052 3054 
2037 1 3055 3056 
2038 1 3055 3057 
2039 1 3058 3059 
2040 1 3058 3060 
2041 1 3061 3062 
2042 1 3061 3063 
2043 1 3064 3065 
2044 1 3064 3066 
2045 1 3067 3068 
2046 1 3067 3069 
2047 1 3070 3071 
2048 1 3070 3072 
2049 1 3073 3074 
2050 1 3073 3075 
2051 1 3076 3077 
2052 1 3076 3078 
2053 1 3079 3080 
2054 1 3079 3081 
2055 1 3082 3083 
2056 1 3082 3084 
2057 1 3085 3086 
2058 1 3085 3087 
2059 1 3088 3089 
2060 1 3088 3090 
2061 1 3091 3092 
2062 1 3091 3093 
2063 1 3094 3095 
2064 1 3094 3096 
2065 1 3097 3098 
2066 1 3097 3099 
2067 1 3100 3101 
2068 1 3100 3102 
2069 1 3103 3104 
2070 1 3103 3105 
2071 1 3106 3107 
2072 1 3106 3108 
2073 1 3109 3110 
2074 1 3109 3111 
2075 1 3112 3113 
2076 1 3112 3114 
2077 1 3115 3116 
2078 1 3115 3117 
2079 1 3118 3119 
2080 1 3118 3120 
2081 1 3121 3122 
2082 1 3121 3123 
2083 1 3124 3125 
2084 1 3124 3126 
2085 1 3127 3128 
2086 1 3127 3129 
2087 1 3130 3131 
2088 1 3130 3132 
2089 1 3133 3134 
2090 1 3133 3135 
2091 1 3136 3137 
2092 1 3136 3138 
2093 1 3139 3140 
2094 1 3139 3141 
2095 1 3142 3143 
2096 1 3142 3144 
2097 1 3145 3146 
2098 1 3145 3147 
2099 1 3148 3149 
2100 1 3148 3150 
2101 1 3151 3152 
2102 1 3151 3153 
2103 1 3154 3155 
2104 1 3154 3156 
2105 1 3157 3158 
2106 1 3157 3159 
2107 1 3160 3161 
2108 1 3160 3162 
2109 1 3163 3164 
2110 1 3163 3165 
2111 1 3166 3167 
2112 1 3166 3168 
2113 1 3169 3170 
2114 1 3169 3171 
2115 1 3172 3173 
2116 1 3172 3174 
2117 1 3175 3176 
2118 1 3175 3177 
2119 1 3178 3179 
2120 1 3178 3180 
2121 1 3181 3182 
2122 1 3181 3183 
2123 1 3184 3185 
2124 1 3184 3186 
2125 1 3187 3188 
2126 1 3187 3189 
2127 1 3190 3191 
2128 1 3190 3192 
2129 1 3193 3194 
2130 1 3193 3195 
2131 1 3196 3197 
2132 1 3196 3198 
2133 1 3199 3200 
2134 1 3199 3201 
2135 1 3202 3203 
2136 1 3202 3204 
2137 1 3205 3206 
2138 1 3205 3207 
2139 1 3208 3209 
2140 1 3208 3210 
2141 1 3211 3212 
2142 1 3211 3213 
2143 1 3214 3215 
2144 1 3214 3216 
2145 1 3217 3218 
2146 1 3217 3219 
2147 1 3220 3221 
2148 1 3220 3222 
2149 1 3223 3224 
2150 1 3223 3225 
2151 1 3226 3227 
2152 1 3226 3228 
2153 1 3229 3230 
2154 1 3229 3231 
2155 1 3232 3233 
2156 1 3232 3234 
2157 1 3235 3236 
2158 1 3235 3237 
2159 1 3238 3239 
2160 1 3238 3240 
2161 1 3241 3242 
2162 1 3241 3243 
2163 1 3244 3245 
2164 1 3244 3246 
2165 1 3247 3248 
2166 1 3247 3249 
2167 1 3250 3251 
2168 1 3250 3252 
2169 1 3253 3254 
2170 1 3253 3255 
2171 1 3256 3257 
2172 1 3256 3258 
2173 1 3259 3260 
2174 1 3259 3261 
2175 1 3262 3263 
2176 1 3262 3264 
2177 1 3265 3266 
2178 1 3265 3267 
2179 1 3268 3269 
2180 1 3268 3270 
2181 1 3271 3272 
2182 1 3271 3273 
2183 1 3274 3275 
2184 1 3274 3276 
2185 1 3277 3278 
2186 1 3277 3279 
2187 1 3280 3281 
2188 1 3280 3282 
2189 1 3283 3284 
2190 1 3283 3285 
2191 1 3286 3287 
2192 1 3286 3288 
2193 1 3289 3290 
2194 1 3289 3291 
2195 1 3292 3293 
2196 1 3292 3294 
2197 1 3295 3296 
2198 1 3295 3297 
2199 1 3298 3299 
2200 1 3298 3300 
2201 1 3301 3302 
2202 1 3301 3303 
2203 1 3304 3305 
2204 1 3304 3306 
2205 1 3307 3308 
2206 1 3307 3309 
2207 1 3310 3311 
2208 1 3310 3312 
2209 1 3313 3314 
2210 1 3313 3315 
2211 1 3316 3317 
2212 1 3316 3318 
2213 1 3319 3320 
2214 1 3319 3321 
2215 1 3322 3323 
2216 1 3322 3324 
2217 1 3325 3326 
2218 1 3325 3327 
2219 1 3328 3329 
2220 1 3328 3330 
2221 1 3331 3332 
2222 1 3331 3333 
2223 1 3334 3335 
2224 1 3334 3336 
2225 1 3337 3338 
2226 1 3337 3339 
2227 1 3340 3341 
2228 1 3340 3342 
2229 1 3343 3344 
2230 1 3343 3345 
2231 1 3346 3347 
2232 1 3346 3348 
2233 1 3349 3350 
2234 1 3349 3351 
2235 1 3352 3353 
2236 1 3352 3354 
2237 1 3355 3356 
2238 1 3355 3357 
2239 1 3358 3359 
2240 1 3358 3360 
2241 1 3361 3362 
2242 1 3361 3363 
2243 1 3364 3365 
2244 1 3364 3366 
2245 1 3367 3368 
2246 1 3367 3369 
2247 1 3370 3371 
2248 1 3370 3372 
2249 1 3373 3374 
2250 1 3373 3375 
2251 1 3376 3377 
2252 1 3376 3378 
2253 1 3379 3380 
2254 1 3379 3381 
2255 1 3382 3383 
2256 1 3382 3384 
2257 1 3385 3386 
2258 1 3385 3387 
2259 1 3388 3389 
2260 1 3388 3390 
2261 1 3391 3392 
2262 1 3391 3393 
2263 1 3394 3395 
2264 1 3394 3396 
2265 1 3397 3398 
2266 1 3397 3399 
2267 1 3400 3401 
2268 1 3400 3402 
2269 1 3403 3404 
2270 1 3403 3405 
2271 1 3406 3407 
2272 1 3406 3408 
2273 1 3409 3410 
2274 1 3409 3411 
2275 1 3412 3413 
2276 1 3412 3414 
2277 1 3415 3416 
2278 1 3415 3417 
2279 1 3418 3419 
2280 1 3418 3420 
2281 1 3421 3422 
2282 1 3421 3423 
2283 1 3424 3425 
2284 1 3424 3426 
2285 1 3427 3428 
2286 1 3427 3429 
2287 1 3430 3431 
2288 1 3430 3432 
2289 1 3433 3434 
2290 1 3433 3435 
2291 1 3436 3437 
2292 1 3436 3438 
2293 1 3439 3440 
2294 1 3439 3441 
2295 1 3442 3443 
2296 1 3442 3444 
2297 1 3445 3446 
2298 1 3445 3447 
2299 1 3448 3449 
2300 1 3448 3450 
2301 1 3451 3452 
2302 1 3451 3453 
2303 1 3454 3455 
2304 1 3454 3456 
2305 1 3457 3458 
2306 1 3457 3459 
2307 1 3460 3461 
2308 1 3460 3462 
2309 1 3463 3464 
2310 1 3463 3465 
2311 1 3466 3467 
2312 1 3466 3468 
2313 1 3469 3470 
2314 1 3469 3471 
2315 1 3472 3473 
2316 1 3472 3474 
2317 1 3475 3476 
2318 1 3475 3477 
2319 1 3478 3479 
2320 1 3478 3480 
2321 1 3481 3482 
2322 1 3481 3483 
2323 1 3484 3485 
2324 1 3484 3486 
2325 1 3487 3488 
2326 1 3487 3489 
2327 1 3490 3491 
2328 1 3490 3492 
2329 1 3493 3494 
2330 1 3493 3495 
2331 1 3496 3497 
2332 1 3496 3498 
2333 1 3499 3500 
2334 1 3499 3501 
2335 1 3502 3503 
2336 1 3502 3504 
2337 1 3505 3506 
2338 1 3505 3507 
2339 1 3508 3509 
2340 1 3508 3510 
2341 1 3511 3512 
2342 1 3511 3513 
2343 1 3514 3515 
2344 1 3514 3516 
2345 1 3517 3518 
2346 1 3517 3519 
2347 1 3520 3521 
2348 1 3520 3522 
2349 1 3523 3524 
2350 1 3523 3525 
2351 1 3526 3527 
2352 1 3526 3528 
2353 1 3529 3530 
2354 1 3529 3531 
2355 1 3532 3533 
2356 1 3532 3534 
2357 1 3535 3536 
2358 1 3535 3537 
2359 1 3538 3539 
2360 1 3538 3540 
2361 1 3541 3542 
2362 1 3541 3543 
2363 1 3544 3545 
2364 1 3544 3546 
2365 1 3547 3548 
2366 1 3547 3549 
2367 1 3550 3551 
2368 1 3550 3552 
2369 1 3553 3554 
2370 1 3553 3555 
2371 1 3556 3557 
2372 1 3556 3558 
2373 1 3559 3560 
2374 1 3559 3561 
2375 1 3562 3563 
2376 1 3562 3564 
2377 1 3565 3566 
2378 1 3565 3567 
2379 1 3568 3569 
2380 1 3568 3570 
2381 1 3571 3572 
2382 1 3571 3573 
2383 1 3574 3575 
2384 1 3574 3576 
2385 1 3577 3578 
2386 1 3577 3579 
2387 1 3580 3581 
2388 1 3580 3582 
2389 1 3583 3584 
2390 1 3583 3585 
2391 1 3586 3587 
2392 1 3586 3588 
2393 1 3589 3590 
2394 1 3589 3591 
2395 1 3592 3593 
2396 1 3592 3594 
2397 1 3595 3596 
2398 1 3595 3597 
2399 1 3598 3599 
2400 1 3598 3600 
2401 1 3601 3602 
2402 1 3601 3603 
2403 1 3604 3605 
2404 1 3604 3606 
2405 1 3607 3608 
2406 1 3607 3609 
2407 1 3610 3611 
2408 1 3610 3612 
2409 1 3613 3614 
2410 1 3613 3615 
2411 1 3616 3617 
2412 1 3616 3618 
2413 1 3619 3620 
2414 1 3619 3621 
2415 1 3622 3623 
2416 1 3622 3624 
2417 1 3625 3626 
2418 1 3625 3627 
2419 1 3628 3629 
2420 1 3628 3630 
2421 1 3631 3632 
2422 1 3631 3633 
2423 1 3634 3635 
2424 1 3634 3636 
2425 1 3637 3638 
2426 1 3637 3639 
2427 1 3640 3641 
2428 1 3640 3642 
2429 1 3643 3644 
2430 1 3643 3645 
2431 1 3646 3647 
2432 1 3646 3648 
2433 1 3649 3650 
2434 1 3649 3651 
2435 1 3652 3653 
2436 1 3652 3654 
2437 1 3655 3656 
2438 1 3655 3657 
2439 1 3658 3659 
2440 1 3658 3660 
2441 1 3661 3662 
2442 1 3661 3663 
2443 1 3664 3665 
2444 1 3664 3666 
2445 1 3667 3668 
2446 1 3667 3669 
2447 1 3670 3671 
2448 1 3670 3672 
2449 1 3673 3674 
2450 1 3673 3675 
2451 1 3676 3677 
2452 1 3676 3678 
2453 1 3679 3680 
2454 1 3679 3681 
2455 1 3682 3683 
2456 1 3682 3684 
2457 1 3685 3686 
2458 1 3685 3687 
2459 1 3688 3689 
2460 1 3688 3690 
2461 1 3691 3692 
2462 1 3691 3693 
2463 1 3694 3695 
2464 1 3694 3696 
2465 1 3697 3698 
2466 1 3697 3699 
2467 1 3700 3701 
2468 1 3700 3702 
2469 1 3703 3704 
2470 1 3703 3705 
2471 1 3706 3707 
2472 1 3706 3708 
2473 1 3709 3710 
2474 1 3709 3711 
2475 1 3712 3713 
2476 1 3712 3714 
2477 1 3715 3716 
2478 1 3715 3717 
2479 1 3718 3719 
2480 1 3718 3720 
2481 1 3721 3722 
2482 1 3721 3723 
2483 1 3724 3725 
2484 1 3724 3726 
2485 1 3727 3728 
2486 1 3727 3729 
2487 1 3730 3731 
2488 1 3730 3732 
2489 1 3733 3734 
2490 1 3733 3735 
2491 1 3736 3737 
2492 1 3736 3738 
2493 1 3739 3740 
2494 1 3739 3741 
2495 1 3742 3743 
2496 1 3742 3744 
2497 1 3745 3746 
2498 1 3745 3747 
2499 1 3748 3749 
2500 1 3748 3750 
2501 1 3751 3752 
2502 1 3751 3753 
2503 1 3754 3755 
2504 1 3754 3756 
2505 1 3757 3758 
2506 1 3757 3759 
2507 1 3760 3761 
2508 1 3760 3762 
2509 1 3763 3764 
2510 1 3763 3765 
2511 1 3766 3767 
2512 1 3766 3768 
2513 1 3769 3770 
2514 1 3769 3771 
2515 1 3772 3773 
2516 1 3772 3774 
2517 1 3775 3776 
2518 1 3775 3777 
2519 1 3778 3779 
2520 1 3778 3780 
2521 1 3781 3782 
2522 1 3781 3783 
2523 1 3784 3785 
2524 1 3784 3786 
2525 1 3787 3788 
2526 1 3787 3789 
2527 1 3790 3791 
2528 1 3790 3792 
2529 1 3793 3794 
2530 1 3793 3795 
2531 1 3796 3797 
2532 1 3796 3798 
2533 1 3799 3800 
2534 1 3799 3801 
2535 1 3802 3803 
2536 1 3802 3804 
2537 1 3805 3806 
2538 1 3805 3807 
2539 1 3808 3809 
2540 1 3808 3810 
2541 1 3811 3812 
2542 1 3811 3813 
2543 1 3814 3815 
2544 1 3814 3816 
2545 1 3817 3818 
2546 1 3817 3819 
2547 1 3820 3821 
2548 1 3820 3822 
2549 1 3823 3824 
2550 1 3823 3825 
2551 1 3826 3827 
2552 1 3826 3828 
2553 1 3829 3830 
2554 1 3829 3831 
2555 1 3832 3833 
2556 1 3832 3834 
2557 1 3835 3836 
2558 1 3835 3837 
2559 1 3838 3839 
2560 1 3838 3840 
2561 1 3841 3842 
2562 1 3841 3843 
2563 1 3844 3845 
2564 1 3844 3846 
2565 1 3847 3848 
2566 1 3847 3849 
2567 1 3850 3851 
2568 1 3850 3852 
2569 1 3853 3854 
2570 1 3853 3855 
2571 1 3856 3857 
2572 1 3856 3858 
2573 1 3859 3860 
2574 1 3859 3861 
2575 1 3862 3863 
2576 1 3862 3864 
2577 1 3865 3866 
2578 1 3865 3867 
2579 1 3868 3869 
2580 1 3868 3870 
2581 1 3871 3872 
2582 1 3871 3873 
2583 1 3874 3875 
2584 1 3874 3876 
2585 1 3877 3878 
2586 1 3877 3879 
2587 1 3880 3881 
2588 1 3880 3882 
2589 1 3883 3884 
2590 1 3883 3885 
2591 1 3886 3887 
2592 1 3886 3888 
2593 1 3889 3890 
2594 1 3889 3891 
2595 1 3892 3893 
2596 1 3892 3894 
2597 1 3895 3896 
2598 1 3895 3897 
2599 1 3898 3899 
2600 1 3898 3900 
2601 1 3901 3902 
2602 1 3901 3903 
2603 1 3904 3905 
2604 1 3904 3906 
2605 1 3907 3908 
2606 1 3907 3909 
2607 1 3910 3911 
2608 1 3910 3912 
2609 1 3913 3914 
2610 1 3913 3915 
2611 1 3916 3917 
2612 1 3916 3918 
2613 1 3919 3920 
2614 1 3919 3921 
2615 1 3922 3923 
2616 1 3922 3924 
2617 1 3925 3926 
2618 1 3925 3927 
2619 1 3928 3929 
2620 1 3928 3930 
2621 1 3931 3932 
2622 1 3931 3933 
2623 1 3934 3935 
2624 1 3934 3936 
2625 1 3937 3938 
2626 1 3937 3939 
2627 1 3940 3941 
2628 1 3940 3942 
2629 1 3943 3944 
2630 1 3943 3945 
2631 1 3946 3947 
2632 1 3946 3948 
2633 1 3949 3950 
2634 1 3949 3951 
2635 1 3952 3953 
2636 1 3952 3954 
2637 1 3955 3956 
2638 1 3955 3957 
2639 1 3958 3959 
2640 1 3958 3960 
2641 1 3961 3962 
2642 1 3961 3963 
2643 1 3964 3965 
2644 1 3964 3966 
2645 1 3967 3968 
2646 1 3967 3969 
2647 1 3970 3971 
2648 1 3970 3972 
2649 1 3973 3974 
2650 1 3973 3975 
2651 1 3976 3977 
2652 1 3976 3978 
2653 1 3979 3980 
2654 1 3979 3981 
2655 1 3982 3983 
2656 1 3982 3984 
2657 1 3985 3986 
2658 1 3985 3987 
2659 1 3988 3989 
2660 1 3988 3990 
2661 1 3991 3992 
2662 1 3991 3993 
2663 1 3994 3995 
2664 1 3994 3996 
2665 1 3997 3998 
2666 1 3997 3999 
2667 1 4000 4001 
2668 1 4000 4002 
2669 1 4003 4004 
2670 1 4003 4005 
2671 1 4006 4007 
2672 1 4006 4008 
2673 1 4009 4010 
2674 1 4009 4011 
2675 1 4012 4013 
2676 1 4012 4014 
2677 1 4015 4016 
2678 1 4015 4017 
2679 1 4018 4019 
2680 1 4018 4020 
2681 1 4021 4022 
2682 1 4021 4023 
2683 1 4024 4025 
2684 1 4024 4026 
2685 1 4027 4028 
2686 1 4027 4029 
2687 1 4030 4031 
2688 1 4030 4032 
2689 1 4033 4034 
2690 1 4033 4035 
2691 1 4036 4037 
2692 1 4036 4038 
2693 1 4039 4040 
2694 1 4039 4041 
2695 1 4042 4043 
2696 1 4042 4044 
2697 1 4045 4046 
2698 1 4045 4047 
2699 1 4048 4049 
2700 1 4048 4050 
2701 1 4051 4052 
2702 1 4051 4053 
2703 1 4054 4055 
2704 1 4054 4056 
2705 1 4057 4058 
2706 1 4057 4059 
2707 1 4060 4061 
2708 1 4060 4062 
2709 1 4063 4064 
2710 1 4063 4065 
2711 1 4066 4067 
2712 1 4066 4068 
2713 1 4069 4070 
2714 1 4069 4071 
2715 1 4072 4073 
2716 1 4072 4074 
2717 1 4075 4076 
2718 1 4075 4077 
2719 1 4078 4079 
2720 1 4078 4080 
2721 1 4081 4082 
2722 1 4081 4083 
2723 1 4084 4085 
2724 1 4084 4086 
2725 1 4087 4088 
2726 1 4087 4089 
2727 1 4090 4091 
2728 1 4090 4092 
2729 1 4093 4094 
2730 1 4093 4095 
2731 1 4096 4097 
2732 1 4096 4098 
2733 1 4099 4100 
2734 1 4099 4101 
2735 1 4102 4103 
2736 1 4102 4104 
2737 1 4105 4106 
2738 1 4105 4107 
2739 1 4108 4109 
2740 1 4108 4110 
2741 1 4111 4112 
2742 1 4111 4113 
2743 1 4114 4115 
2744 1 4114 4116 
2745 1 4117 4118 
2746 1 4117 4119 
2747 1 4120 4121 
2748 1 4120 4122 
2749 1 4123 4124 
2750 1 4123 4125 
2751 1 4126 4127 
2752 1 4126 4128 
2753 1 4129 4130 
2754 1 4129 4131 
2755 1 4132 4133 
2756 1 4132 4134 
2757 1 4135 4136 
2758 1 4135 4137 
2759 1 4138 4139 
2760 1 4138 4140 
2761 1 4141 4142 
2762 1 4141 4143 
2763 1 4144 4145 
2764 1 4144 4146 
2765 1 4147 4148 
2766 1 4147 4149 
2767 1 4150 4151 
2768 1 4150 4152 
2769 1 4153 4154 
2770 1 4153 4155 
2771 1 4156 4157 
2772 1 4156 4158 
2773 1 4159 4160 
2774 1 4159 4161 
2775 1 4162 4163 
2776 1 4162 4164 
2777 1 4165 4166 
2778 1 4165 4167 
2779 1 4168 4169 
2780 1 4168 4170 
2781 1 4171 4172 
2782 1 4171 4173 
2783 1 4174 4175 
2784 1 4174 4176 
2785 1 4177 4178 
2786 1 4177 4179 
2787 1 4180 4181 
2788 1 4180 4182 
2789 1 4183 4184 
2790 1 4183 4185 
2791 1 4186 4187 
2792 1 4186 4188 
2793 1 4189 4190 
2794 1 4189 4191 
2795 1 4192 4193 
2796 1 4192 4194 
2797 1 4195 4196 
2798 1 4195 4197 
2799 1 4198 4199 
2800 1 4198 4200 
2801 1 4201 4202 
2802 1 4201 4203 
2803 1 4204 4205 
2804 1 4204 4206 
2805 1 4207 4208 
2806 1 4207 4209 
2807 1 4210 4211 
2808 1 4210 4212 
2809 1 4213 4214 
2810 1 4213 4215 
2811 1 4216 4217 
2812 1 4216 4218 
2813 1 4219 4220 
2814 1 4219 4221 
2815 1 4222 4223 
2816 1 4222 4224 
2817 1 4225 4226 
2818 1 4225 4227 
2819 1 4228 4229 
2820 1 4228 4230 
2821 1 4231 4232 
2822 1 4231 4233 
2823 1 4234 4235 
2824 1 4234 4236 
2825 1 4237 4238 
2826 1 4237 4239 
2827 1 4240 4241 
2828 1 4240 4242 
2829 1 4243 4244 
2830 1 4243 4245 
2831 1 4246 4247 
2832 1 4246 4248 
2833 1 4249 4250 
2834 1 4249 4251 
2835 1 4252 4253 
2836 1 4252 4254 
2837 1 4255 4256 
2838 1 4255 4257 
2839 1 4258 4259 
2840 1 4258 4260 
2841 1 4261 4262 
2842 1 4261 4263 
2843 1 4264 4265 
2844 1 4264 4266 
2845 1 4267 4268 
2846 1 4267 4269 
2847 1 4270 4271 
2848 1 4270 4272 
2849 1 4273 4274 
2850 1 4273 4275 
2851 1 4276 4277 
2852 1 4276 4278 
2853 1 4279 4280 
2854 1 4279 4281 
2855 1 4282 4283 
2856 1 4282 4284 
2857 1 4285 4286 
2858 1 4285 4287 
2859 1 4288 4289 
2860 1 4288 4290 
2861 1 4291 4292 
2862 1 4291 4293 
2863 1 4294 4295 
2864 1 4294 4296 
2865 1 4297 4298 
2866 1 4297 4299 
2867 1 4300 4301 
2868 1 4300 4302 
2869 1 4303 4304 
2870 1 4303 4305 
2871 1 4306 4307 
2872 1 4306 4308 
2873 1 4309 4310 
2874 1 4309 4311 
2875 1 4312 4313 
2876 1 4312 4314 
2877 1 4315 4316 
2878 1 4315 4317 
2879 1 4318 4319 
2880 1 4318 4320 
2881 1 4321 4322 
2882 1 4321 4323 
2883 1 4324 4325 
2884 1 4324 4326 
2885 1 4327 4328 
2886 1 4327 4329 
2887 1 4330 4331 
2888 1 4330 4332 
2889 1 4333 4334 
2890 1 4333 4335 
2891 1 4336 4337 
2892 1 4336 4338 
2893 1 4339 4340 
2894 1 4339 4341 
2895 1 4342 4343 
2896 1 4342 4344 
2897 1 4345 4346 
2898 1 4345 4347 
2899 1 4348 4349 
2900 1 4348 4350 
2901 1 4351 4352 
2902 1 4351 4353 
2903 1 4354 4355 
2904 1 4354 4356 
2905 1 4357 4358 
2906 1 4357 4359 
2907 1 4360 4361 
2908 1 4360 4362 
2909 1 4363 4364 
2910 1 4363 4365 
2911 1 4366 4367 
2912 1 4366 4368 
2913 1 4369 4370 
2914 1 4369 4371 
2915 1 4372 4373 
2916 1 4372 4374 
2917 1 4375 4376 
2918 1 4375 4377 
2919 1 4378 4379 
2920 1 4378 4380 
2921 1 4381 4382 
2922 1 4381 4383 
2923 1 4384 4385 
2924 1 4384 4386 
2925 1 4387 4388 
2926 1 4387 4389 
2927 1 4390 4391 
2928 1 4390 4392 
2929 1 4393 4394 
2930 1 4393 4395 
2931 1 4396 4397 
2932 1 4396 4398 
2933 1 4399 4400 
2934 1 4399 4401 
2935 1 4402 4403 
2936 1 4402 4404 
2937 1 4405 4406 
2938 1 4405 4407 
2939 1 4408 4409 
2940 1 4408 4410 
2941 1 4411 4412 
2942 1 4411 4413 
2943 1 4414 4415 
2944 1 4414 4416 
2945 1 4417 4418 
2946 1 4417 4419 
2947 1 4420 4421 
2948 1 4420 4422 
2949 1 4423 4424 
2950 1 4423 4425 
2951 1 4426 4427 
2952 1 4426 4428 
2953 1 4429 4430 
2954 1 4429 4431 
2955 1 4432 4433 
2956 1 4432 4434 
2957 1 4435 4436 
2958 1 4435 4437 
2959 1 4438 4439 
2960 1 4438 4440 
2961 1 4441 4442 
2962 1 4441 4443 
2963 1 4444 4445 
2964 1 4444 4446 
2965 1 4447 4448 
2966 1 4447 4449 
2967 1 4450 4451 
2968 1 4450 4452 
2969 1 4453 4454 
2970 1 4453 4455 
2971 1 4456 4457 
2972 1 4456 4458 
2973 1 4459 4460 
2974 1 4459 4461 
2975 1 4462 4463 
2976 1 4462 4464 
2977 1 4465 4466 
2978 1 4465 4467 
2979 1 4468 4469 
2980 1 4468 4470 
2981 1 4471 4472 
2982 1 4471 4473 
2983 1 4474 4475 
2984 1 4474 4476 
2985 1 4477 4478 
2986 1 4477 4479 
2987 1 4480 4481 
2988 1 4480 4482 
2989 1 4483 4484 
2990 1 4483 4485 
2991 1 4486 4487 
2992 1 4486 4488 
2993 1 4489 4490 
2994 1 4489 4491 
2995 1 4492 4493 
2996 1 4492 4494 
2997 1 4495 4496 
2998 1 4495 4497 
2999 1 4498 4499 
3000 1 4498 4500 
3001 1 4501 4502 
3002 1 4501 4503 
3003 1 4504 4505 
3004 1 4504 4506 
3005 1 4507 4508 
3006 1 4507 4509 
3007 1 4510 4511 
3008 1 4510 4512 
3009 1 4513 4514 
3010 1 4513 4515 
3011 1 4516 4517 
3012 1 4516 4518 
3013 1 4519 4520 
3014 1 4519 4521 
3015 1 4522 4523 
3016 1 4522 4524 
3017 1 4525 4526 
3018 1 4525 4527 
3019 1 4528 4529 
3020 1 4528 4530 
3021 1 4531 4532 
3022 1 4531 4533 
3023 1 4534 4535 
3024 1 4534 4536 
3025 1 4537 4538 
3026 1 4537 4539 
3027 1 4540 4541 
3028 1 4540 4542 
3029 1 4543 4544 
3030 1 4543 4545 
3031 1 4546 4547 
3032 1 4546 4548 
3033 1 4549 4550 
3034 1 4549 4551 
3035 1 4552 4553 
3036 1 4552 4554 
3037 1 4555 4556 
3038 1 4555 4557 
3039 1 4558 4559 
3040 1 4558 4560 
3041 1 4561 4562 
3042 1 4561 4563 
3043 1 4564 4565 
3044 1 4564 4566 
3045 1 4567 4568 
3046 1 4567 4569 
3047 1 4570 4571 
3048 1 4570 4572 
3049 1 4573 4574 
3050 1 4573 4575 
3051 1 4576 4577 
3052 1 4576 4578 
3053 1 4579 4580 
3054 1 4579 4581 
3055 1 4582 4583 
3056 1 4582 4584 
3057 1 4585 4586 
3058 1 4585 4587 
3059 1 4588 4589 
3060 1 4588 4590 
3061 1 4591 4592 
3062 1 4591 4593 
3063 1 4594 4595 
3064 1 4594 4596 
3065 1 4597 4598 
3066 1 4597 4599 
3067 1 4600 4601 
3068 1 4600 4602 
3069 1 4603 4604 
3070 1 4603 4605 
3071 1 4606 4607 
3072 1 4606 4608 
3073 1 4609 4610 
3074 1 4609 4611 
3075 1 4612 4613 
3076 1 4612 4614 
3077 1 4615 4616 
3078 1 4615 4617 
3079 1 4618 4619 
3080 1 4618 4620 
3081 1 4621 4622 
3082 1 4621 4623 
3083 1 4624 4625 
3084 1 4624 4626 
3085 1 4627 4628 
3086 1 4627 4629 
3087 1 4630 4631 
3088 1 4630 4632 
3089 1 4633 4634 
3090 1 4633 4635 
3091 1 4636 4637 
3092 1 4636 4638 
3093 1 4639 4640 
3094 1 4639 4641 
3095 1 4642 4643 
3096 1 4642 4644 
3097 1 4645 4646 
3098 1 4645 4647 
3099 1 4648 4649 
3100 1 4648 4650 
3101 1 4651 4652 
3102 1 4651 4653 
3103 1 4654 4655 
3104 1 4654 4656 
3105 1 4657 4658 
3106 1 4657 4659 
3107 1 4660 4661 
3108 1 4660 4662 
3109 1 4663 4664 
3110 1 4663 4665 
3111 1 4666 4667 
3112 1 4666 4668 
3113 1 4669 4670 
3114 1 4669 4671 
3115 1 4672 4673 
3116 1 4672 4674 
3117 1 4675 4676 
3118 1 4675 4677 
3119 1 4678 4679 
3120 1 4678 4680 
3121 1 4681 4682 
3122 1 4681 4683 
3123 1 4684 4685 
3124 1 4684 4686 
3125 1 4687 4688 
3126 1 4687 4689 
3127 1 4690 4691 
3128 1 4690 4692 
3129 1 4693 4694 
3130 1 4693 4695 
3131 1 4696 4697 
3132 1 4696 4698 
3133 1 4699 4700 
3134 1 4699 4701 
3135 1 4702 4703 
3136 1 4702 4704 
3137 1 4705 4706 
3138 1 4705 4707 
3139 1 4708 4709 
3140 1 4708 4710 
3141 1 4711 4712 
3142 1 4711 4713 
3143 1 4714 4715 
3144 1 4714 4716 
3145 1 4717 4718 
3146 1 4717 4719 
3147 1 4720 4721 
3148 1 4720 4722 
3149 1 4723 4724 
3150 1 4723 4725 
3151 1 4726 4727 
3152 1 4726 4728 
3153 1 4729 4730 
3154 1 4729 4731 
3155 1 4732 4733 
3156 1 4732 4734 
3157 1 4735 4736 
3158 1 4735 4737 
3159 1 4738 4739 
3160 1 4738 4740 
3161 1 4741 4742 
3162 1 4741 4743 
3163 1 4744 4745 
3164 1 4744 4746 
3165 1 4747 4748 
3166 1 4747 4749 
3167 1 4750 4751 
3168 1 4750 4752 
3169 1 4753 4754 
3170 1 4753 4755 
3171 1 4756 4757 
3172 1 4756 4758 
3173 1 4759 4760 
3174 1 4759 4761 
3175 1 4762 4763 
3176 1 4762 4764 
3177 1 4765 4766 
3178 1 4765 4767 
3179 1 4768 4769 
3180 1 4768 4770 
3181 1 4771 4772 
3182 1 4771 4773 
3183 1 4774 4775 
3184 1 4774 4776 
3185 1 4777 4778 
3186 1 4777 4779 
3187 1 4780 4781 
3188 1 4780 4782 
3189 1 4783 4784 
3190 1 4783 4785 
3191 1 4786 4787 
3192 1 4786 4788 
3193 1 4789 4790 
3194 1 4789 4791 
3195 1 4792 4793 
3196 1 4792 4794 
3197 1 4795 4796 
3198 1 4795 4797 
3199 1 4798 4799 
3200 1 4798 4800 
3201 1 4801 4802 
3202 1 4801 4803 
3203 1 4804 4805 
3204 1 4804 4806 
3205 1 4807 4808 
3206 1 4807 4809 
3207 1 4810 4811 
3208 1 4810 4812 
3209 1 4813 4814 
3210 1 4813 4815 
3211 1 4816 4817 
3212 1 4816 4818 
3213 1 4819 4820 
3214 1 4819 4821 
3215 1 4822 4823 
3216 1 4822 4824 
3217 1 4825 4826 
3218 1 4825 4827 
3219 1 4828 4829 
3220 1 4828 4830 
3221 1 4831 4832 
3222 1 4831 4833 
3223 1 4834 4835 
3224 1 4834 4836 
3225 1 4837 4838 
3226 1 4837 4839 
3227 1 4840 4841 
3228 1 4840 4842 
3229 1 4843 4844 
3230 1 4843 4845 
3231 1 4846 4847 
3232 1 4846 4848 
3233 1 4849 4850 
3234 1 4849 4851 
3235 1 4852 4853 
3236 1 4852 4854 
3237 1 4855 4856 
3238 1 4855 4857 
3239 1 4858 4859 
3240 1 4858 4860 
3241 1 4861 4862 
3242 1 4861 4863 
3243 1 4864 4865 
3244 1 4864 4866 
3245 1 4867 4868 
3246 1 4867 4869 
3247 1 4870 4871 
3248 1 4870 4872 
3249 1 4873 4874 
3250 1 4873 4875 
3251 1 4876 4877 
3252 1 4876 4878 
3253 1 4879 4880 
3254 1 4879 4881 
3255 1 4882 4883 
3256 1 4882 4884 
3257 1 4885 4886 
3258 1 4885 4887 
3259 1 4888 4889 
3260 1 4888 4890 
3261 1 4891 4892 
3262 1 4891 4893 
3263 1 4894 4895 
3264 1 4894 4896 
3265 1 4897 4898 
3266 1 4897 4899 
3267 1 4900 4901 
3268 1 4900 4902 
3269 1 4903 4904 
3270 1 4903 4905 
3271 1 4906 4907 
3272 1 4906 4908 
3273 1 4909 4910 
3274 1 4909 4911 
3275 1 4912 4913 
3276 1 4912 4914 
3277 1 4915 4916 
3278 1 4915 4917 
3279 1 4918 4919 
3280 1 4918 4920 
3281 1 4921 4922 
3282 1 4921 4923 
3283 1 4924 4925 
3284 1 4924 4926 
3285 1 4927 4928 
3286 1 4927 4929 
3287 1 4930 4931 
3288 1 4930 4932 
3289 1 4933 4934 
3290 1 4933 4935 
3291 1 4936 4937 
3292 1 4936 4938 
3293 1 4939 4940 
3294 1 4939 4941 
3295 1 4942 4943 
3296 1 4942 4944 
3297 1 4945 4946 
3298 1 4945 4947 
3299 1 4948 4949 
3300 1 4948 4950 
3301 1 4951 4952 
3302 1 4951 4953 
3303 1 4954 4955 
3304 1 4954 4956 
3305 1 4957 4958 
3306 1 4957 4959 
3307 1 4960 4961 
3308 1 4960 4962 
3309 1 4963 4964 
3310 1 4963 4965 
3311 1 4966 4967 
3312 1 4966 4968 
3313 1 4969 4970 
3314 1 4969 4971 
3315 1 4972 4973 
3316 1 4972 4974 
3317 1 4975 4976 
3318 1 4975 4977 
3319 1 4978 4979 
3320 1 4978 4980 
3321 1 4981 4982 
3322 1 4981 4983 
3323 1 4984 4985 
3324 1 4984 4986 
3325 1 4987 4988 
3326 1 4987 4989 
3327 1 4990 4991 
3328 1 4990 4992 
3329 1 4993 4994 
3330 1 4993 4995 
3331 1 4996 4997 
3332 1 4996 4998 
3333 1 4999 5000 
3334 1 4999 5001 
3335 1 5002 5003 
3336 1 5002 5004 
3337 1 5005 5006 
3338 1 5005 5007 
3339 1 5008 5009 
3340 1 5008 5010 
3341 1 5011 5012 
3342 1 5011 5013 
3343 1 5014 5015 
3344 1 5014 5016 
3345 1 5017 5018 
3346 1 5017 5019 
3347 1 5020 5021 
3348 1 5020 5022 
3349 1 5023 5024 
3350 1 5023 5025 
3351 1 5026 5027 
3352 1 5026 5028 
3353 1 5029 5030 
3354 1 5029 5031 
3355 1 5032 5033 
3356 1 5032 5034 
3357 1 5035 5036 
3358 1 5035 5037 
3359 1 5038 5039 
3360 1 5038 5040 
3361 1 5041 5042 
3362 1 5041 5043 
3363 1 5044 5045 
3364 1 5044 5046 
3365 1 5047 5048 
3366 1 5047 5049 
3367 1 5050 5051 
3368 1 5050 5052 
3369 1 5053 5054 
3370 1 5053 5055 
3371 1 5056 5057 
3372 1 5056 5058 
3373 1 5059 5060 
3374 1 5059 5061 
3375 1 5062 5063 
3376 1 5062 5064 
3377 1 5065 5066 
3378 1 5065 5067 
3379 1 5068 5069 
3380 1 5068 5070 
3381 1 5071 5072 
3382 1 5071 5073 
3383 1 5074 5075 
3384 1 5074 5076 
3385 1 5077 5078 
3386 1 5077 5079 
3387 1 5080 5081 
3388 1 5080 5082 
3389 1 5083 5084 
3390 1 5083 5085 
3391 1 5086 5087 
3392 1 5086 5088 
3393 1 5089 5090 
3394 1 5089 5091 
3395 1 5092 5093 
3396 1 5092 5094 
3397 1 5095 5096 
3398 1 5095 5097 
3399 1 5098 5099 
3400 1 5098 5100 
3401 1 5101 5102 
3402 1 5101 5103 
3403 1 5104 5105 
3404 1 5104 5106 
3405 1 5107 5108 
3406 1 5107 5109 
3407 1 5110 5111 
3408 1 5110 5112 
3409 1 5113 5114 
3410 1 5113 5115 
3411 1 5116 5117 
3412 1 5116 5118 
3413 1 5119 5120 
3414 1 5119 5121 
3415 1 5122 5123 
3416 1 5122 5124 
3417 1 5125 5126 
3418 1 5125 5127 
3419 1 5128 5129 
3420 1 5128 5130 
3421 1 5131 5132 
3422 1 5131 5133 
3423 1 5134 5135 
3424 1 5134 5136 
3425 1 5137 5138 
3426 1 5137 5139 
3427 1 5140 5141 
3428 1 5140 5142 
3429 1 5143 5144 
3430 1 5143 5145 
3431 1 5146 5147 
3432 1 5146 5148 
3433 1 5149 5150 
3434 1 5149 5151 
3435 1 5152 5153 
3436 1 5152 5154 
3437 1 5155 5156 
3438 1 5155 5157 
3439 1 5158 5159 
3440 1 5158 5160 
3441 1 5161 5162 
3442 1 5161 5163 
3443 1 5164 5165 
3444 1 5164 5166 
3445 1 5167 5168 
3446 1 5167 5169 
3447 1 5170 5171 
3448 1 5170 5172 
3449 1 5173 5174 
3450 1 5173 5175 
3451 1 5176 5177 
3452 1 5176 5178 
3453 1 5179 5180 
3454 1 5179 5181 
3455 1 5182 5183 
3456 1 5182 5184 
3457 1 5185 5186 
3458 1 5185 5187 
3459 1 5188 5189 
3460 1 5188 5190 
3461 1 5191 5192 
3462 1 5191 5193 
3463 1 5194 5195 
3464 1 5194 5196 
3465 1 5197 5198 
3466 1 5197 5199 
3467 1 5200 5201 
3468 1 5200 5202 
3469 1 5203 5204 
3470 1 5203 5205 
3471 1 5206 5207 
3472 1 5206 5208 
3473 1 5209 5210 
3474 1 5209 5211 
3475 1 5212 5213 
3476 1 5212 5214 
3477 1 5215 5216 
3478 1 5215 5217 
3479 1 5218 5219 
3480 1 5218 5220 
3481 1 5221 5222 
3482 1 5221 5223 
3483 1 5224 5225 
3484 1 5224 5226 
3485 1 5227 5228 
3486 1 5227 5229 
3487 1 5230 5231 
3488 1 5230 5232 
3489 1 5233 5234 
3490 1 5233 5235 
3491 1 5236 5237 
3492 1 5236 5238 
3493 1 5239 5240 
3494 1 5239 5241 
3495 1 5242 5243 
3496 1 5242 5244 
3497 1 5245 5246 
3498 1 5245 5247 
3499 1 5248 5249 
3500 1 5248 5250 
3501 1 5251 5252 
3502 1 5251 5253 
3503 1 5254 5255 
3504 1 5254 5256 
3505 1 5257 5258 
3506 1 5257 5259 
3507 1 5260 5261 
3508 1 5260 5262 
3509 1 5263 5264 
3510 1 5263 5265 
3511 1 5266 5267 
3512 1 5266 5268 
3513 1 5269 5270 
3514 1 5269 5271 
3515 1 5272 5273 
3516 1 5272 5274 
3517 1 5275 5276 
3518 1 5275 5277 
3519 1 5278 5279 
3520 1 5278 5280 
3521 1 5281 5282 
3522 1 5281 5283 
3523 1 5284 5285 
3524 1 5284 5286 
3525 1 5287 5288 
3526 1 5287 5289 
3527 1 5290 5291 
3528 1 5290 5292 
3529 1 5293 5294 
3530 1 5293 5295 
3531 1 5296 5297 
3532 1 5296 5298 
3533 1 5299 5300 
3534 1 5299 5301 
3535 1 5302 5303 
3536 1 5302 5304 
3537 1 5305 5306 
3538 1 5305 5307 
3539 1 5308 5309 
3540 1 5308 5310 
3541 1 5311 5312 
3542 1 5311 5313 
3543 1 5314 5315 
3544 1 5314 5316 
3545 1 5317 5318 
3546 1 5317 5319 
3547 1 5320 5321 
3548 1 5320 5322 
3549 1 5323 5324 
3550 1 5323 5325 
3551 1 5326 5327 
3552 1 5326 5328 
3553 1 5329 5330 
3554 1 5329 5331 
3555 1 5332 5333 
3556 1 5332 5334 
3557 1 5335 5336 
3558 1 5335 5337 
3559 1 5338 5339 
3560 1 5338 5340 
3561 1 5341 5342 
3562 1 5341 5343 
3563 1 5344 5345 
3564 1 5344 5346 
3565 1 5347 5348 
3566 1 5347 5349 
3567 1 5350 5351 
3568 1 5350 5352 
3569 1 5353 5354 
3570 1 5353 5355 
3571 1 5356 5357 
3572 1 5356 5358 
3573 1 5359 5360 
3574 1 5359 5361 
3575 1 5362 5363 
3576 1 5362 5364 
3577 1 5365 5366 
3578 1 5365 5367 
3579 1 5368 5369 
3580 1 5368 5370 
3581 1 5371 5372 
3582 1 5371 5373 
3583 1 5374 5375 
3584 1 5374 5376 
3585 1 5377 5378 
3586 1 5377 5379 
3587 1 5380 5381 
3588 1 5380 5382 
3589 1 5383 5384 
3590 1 5383 5385 
3591 1 5386 5387 
3592 1 5386 5388 
3593 1 5389 5390 
3594 1 5389 5391 
3595 1 5392 5393 
3596 1 5392 5394 
3597 1 5395 5396 
3598 1 5395 5397 
3599 1 5398 5399 
3600 1 5398 5400 
3601 1 5401 5402 
3602 1 5401 5403 
3603 1 5404 5405 
3604 1 5404 5406 
3605 1 5407 5408 
3606 1 5407 5409 
3607 1 5410 5411 
3608 1 5410 5412 
3609 1 5413 5414 
3610 1 5413 5415 
3611 1 5416 5417 
3612 1 5416 5418 
3613 1 5419 5420 
3614 1 5419 5421 
3615 1 5422 5423 
3616 1 5422 5424 
3617 1 5425 5426 
3618 1 5425 5427 
3619 1 5428 5429 
3620 1 5428 5430 
3621 1 5431 5432 
3622 1 5431 5433 
3623 1 5434 5435 
3624 1 5434 5436 
3625 1 5437 5438 
3626 1 5437 5439 
3627 1 5440 5441 
3628 1 5440 5442 
3629 1 5443 5444 
3630 1 5443 5445 
3631 1 5446 5447 
3632 1 5446 5448 
3633 1 5449 5450 
3634 1 5449 5451 
3635 1 5452 5453 
3636 1 5452 5454 
3637 1 5455 5456 
3638 1 5455 5457 
3639 1 5458 5459 
3640 1 5458 5460 
3641 1 5461 5462 
3642 1 5461 5463 
3643 1 5464 5465 
3644 1 5464 5466 
3645 1 5467 5468 
3646 1 5467 5469 
3647 1 5470 5471 
3648 1 5470 5472 
3649 1 5473 5474 
3650 1 5473 5475 
3651 1 5476 5477 
3652 1 5476 5478 
3653 1 5479 5480 
3654 1 5479 5481 
3655 1 5482 5483 
3656 1 5482 5484 
3657 1 5485 5486 
3658 1 5485 5487 
3659 1 5488 5489 
3660 1 5488 5490 
3661 1 5491 5492 
3662 1 5491 5493 
3663 1 5494 5495 
3664 1 5494 5496 
3665 1 5497 5498 
3666 1 5497 5499 
3667 1 5500 5501 
3668 1 5500 5502 
3669 1 5503 5504 
3670 1 5503 5505 
3671 1 5506 5507 
3672 1 5506 5508 
3673 1 5509 5510 
3674 1 5509 5511 
3675 1 5512 5513 
3676 1 5512 5514 
3677 1 5515 5516 
3678 1 5515 5517 
3679 1 5518 5519 
3680 1 5518 5520 
3681 1 5521 5522 
3682 1 5521 5523 
3683 1 5524 5525 
3684 1 5524 5526 
3685 1 5527 5528 
3686 1 5527 5529 
3687 1 5530 5531 
3688 1 5530 5532 
3689 1 5533 5534 
3690 1 5533 5535 
3691 1 5536 5537 
3692 1 5536 5538 
3693 1 5539 5540 
3694 1 5539 5541 
3695 1 5542 5543 
3696 1 5542 5544 
3697 1 5545 5546 
3698 1 5545 5547 
3699 1 5548 5549 
3700 1 5548 5550 
3701 1 5551 5552 
3702 1 5551 5553 
3703 1 5554 5555 
3704 1 5554 5556 
3705 1 5557 5558 
3706 1 5557 5559 
3707 1 5560 5561 
3708 1 5560 5562 
3709 1 5563 5564 
3710 1 5563 5565 
3711 1 5566 5567 
3712 1 5566 5568 
3713 1 5569 5570 
3714 1 5569 5571 
3715 1 5572 5573 
3716 1 5572 5574 
3717 1 5575 5576 
3718 1 5575 5577 
3719 1 5578 5579 
3720 1 5578 5580 
3721 1 5581 5582 
3722 1 5581 5583 
3723 1 5584 5585 
3724 1 5584 5586 
3725 1 5587 5588 
3726 1 5587 5589 
3727 1 5590 5591 
3728 1 5590 5592 
3729 1 5593 5594 
3730 1 5593 5595 
3731 1 5596 5597 
3732 1 5596 5598 
3733 1 5599 5600 
3734 1 5599 5601 
3735 1 5602 5603 
3736 1 5602 5604 
3737 1 5605 5606 
3738 1 5605 5607 
3739 1 5608 5609 
3740 1 5608 5610 
3741 1 5611 5612 
3742 1 5611 5613 
3743 1 5614 5615 
3744 1 5614 5616 
3745 1 5617 5618 
3746 1 5617 5619 
3747 1 5620 5621 
3748 1 5620 5622 
3749 1 5623 5624 
3750 1 5623 5625 
3751 1 5626 5627 
3752 1 5626 5628 
3753 1 5629 5630 
3754 1 5629 5631 
3755 1 5632 5633 
3756 1 5632 5634 
3757 1 5635 5636 
3758 1 5635 5637 
3759 1 5638 5639 
3760 1 5638 5640 
3761 1 5641 5642 
3762 1 5641 5643 
3763 1 5644 5645 
3764 1 5644 5646 
3765 1 5647 5648 
3766 1 5647 5649 
3767 1 5650 5651 
3768 1 5650 5652 
3769 1 5653 5654 
3770 1 5653 5655 
3771 1 5656 5657 
3772 1 5656 5658 
3773 1 5659 5660 
3774 1 5659 5661 
3775 1 5662 5663 
3776 1 5662 5664 
3777 1 5665 5666 
3778 1 5665 5667 
3779 1 5668 5669 
3780 1 5668 5670 
3781 1 5671 5672 
3782 1 5671 5673 
3783 1 5674 5675 
3784 1 5674 5676 
3785 1 5677 5678 
3786 1 5677 5679 
3787 1 5680 5681 
3788 1 5680 5682 
3789 1 5683 5684 
3790 1 5683 5685 
3791 1 5686 5687 
3792 1 5686 5688 
3793 1 5689 5690 
3794 1 5689 5691 
3795 1 5692 5693 
3796 1 5692 5694 
3797 1 5695 5696 
3798 1 5695 5697 
3799 1 5698 5699 
3800 1 5698 5700 
3801 1 5701 5702 
3802 1 5701 5703 
3803 1 5704 5705 
3804 1 5704 5706 
3805 1 5707 5708 
3806 1 5707 5709 
3807 1 5710 5711 
3808 1 5710 5712 
3809 1 5713 5714 
3810 1 5713 5715 
3811 1 5716 5717 
3812 1 5716 5718 
3813 1 5719 5720 
3814 1 5719 5721 
3815 1 5722 5723 
3816 1 5722 5724 
3817 1 5725 5726 
3818 1 5725 5727 
3819 1 5728 5729 
3820 1 5728 5730 
3821 1 5731 5732 
3822 1 5731 5733 
3823 1 5734 5735 
3824 1 5734 5736 
3825 1 5737 5738 
3826 1 5737 5739 
3827 1 5740 5741 
3828 1 5740 5742 
3829 1 5743 5744 
3830 1 5743 5745 
3831 1 5746 5747 
3832 1 5746 5748 
3833 1 5749 5750 
3834 1 5749 5751 
3835 1 5752 5753 
3836 1 5752 5754 
3837 1 5755 5756 
3838 1 5755 5757 
3839 1 5758 5759 
3840 1 5758 5760 
3841 1 5761 5762 
3842 1 5761 5763 
3843 1 5764 5765 
3844 1 5764 5766 
3845 1 5767 5768 
3846 1 5767 5769 
3847 1 5770 5771 
3848 1 5770 5772 
3849 1 5773 5774 
3850 1 5773 5775 
3851 1 5776 5777 
3852 1 5776 5778 
3853 1 5779 5780 
3854 1 5779 5781 
3855 1 5782 5783 
3856 1 5782 5784 
3857 1 5785 5786 
3858 1 5785 5787 
3859 1 5788 5789 
3860 1 5788 5790 
3861 1 5791 5792 
3862 1 5791 5793 
3863 1 5794 5795 
3864 1 5794 5796 
3865 1 5797 5798 
3866 1 5797 5799 
3867 1 5800 5801 
3868 1 5800 5802 
3869 1 5803 5804 
3870 1 5803 5805 
3871 1 5806 5807 
3872 1 5806 5808 
3873 1 5809 5810 
3874 1 5809 5811 
3875 1 5812 5813 
3876 1 5812 5814 
3877 1 5815 5816 
3878 1 5815 5817 
3879 1 5818 5819 
3880 1 5818 5820 
3881 1 5821 5822 
3882 1 5821 5823 
3883 1 5824 5825 
3884 1 5824 5826 
3885 1 5827 5828 
3886 1 5827 5829 
3887 1 5830 5831 
3888 1 5830 5832 
3889 1 5833 5834 
3890 1 5833 5835 
3891 1 5836 5837 
3892 1 5836 5838 
3893 1 5839 5840 
3894 1 5839 5841 
3895 1 5842 5843 
3896 1 5842 5844 
3897 1 5845 5846 
3898 1 5845 5847 
3899 1 5848 5849 
3900 1 5848 5850 
3901 1 5851 5852 
3902 1 5851 5853 
3903 1 5854 5855 
3904 1 5854 5856 
3905 1 5857 5858 
3906 1 5857 5859 
3907 1 5860 5861 
3908 1 5860 5862 
3909 1 5863 5864 
3910 1 5863 5865 
3911 1 5866 5867 
3912 1 5866 5868 
3913 1 5869 5870 
3914 1 5869 5871 
3915 1 5872 5873 
3916 1 5872 5874 
3917 1 5875 5876 
3918 1 5875 5877 
3919 1 5878 5879 
3920 1 5878 5880 
3921 1 5881 5882 
3922 1 5881 5883 
3923 1 5884 5885 
3924 1 5884 5886 
3925 1 5887 5888 
3926 1 5887 5889 
3927 1 5890 5891 
3928 1 5890 5892 
3929 1 5893 5894 
3930 1 5893 5895 
3931 1 5896 5897 
3932 1 5896 5898 
3933 1 5899 5900 
3934 1 5899 5901 
3935 1 5902 5903 
3936 1 5902 5904 
3937 1 5905 5906 
3938 1 5905 5907 
3939 1 5908 5909 
3940 1 5908 5910 
3941 1 5911 5912 
3942 1 5911 5913 
3943 1 5914 5915 
3944 1 5914 5916 
3945 1 5917 5918 
3946 1 5917 5919 
3947 1 5920 5921 
3948 1 5920 5922 
3949 1 5923 5924 
3950 1 5923 5925 
3951 1 5926 5927 
3952 1 5926 5928 
3953 1 5929 5930 
3954 1 5929 5931 
3955 1 5932 5933 
3956 1 5932 5934 
3957 1 5935 5936 
3958 1 5935 5937 
3959 1 5938 5939 
3960 1 5938 5940 
3961 1 5941 5942 
3962 1 5941 5943 
3963 1 5944 5945 
3964 1 5944 5946 
3965 1 5947 5948 
3966 1 5947 5949 
3967 1 5950 5951 
3968 1 5950 5952 
3969 1 5953 5954 
3970 1 5953 5955 
3971 1 5956 5957 
3972 1 5956 5958 
3973 1 5959 5960 
3974 1 5959 5961 
3975 1 5962 5963 
3976 1 5962 5964 
3977 1 5965 5966 
3978 1 5965 5967 
3979 1 5968 5969 
3980 1 5968 5970 
3981 1 5971 5972 
3982 1 5971 5973 
3983 1 5974 5975 
3984 1 5974 5976 
3985 1 5977 5978 
3986 1 5977 5979 
3987 1 5980 5981 
3988 1 5980 5982 
3989 1 5983 5984 
3990 1 5983 5985 
3991 1 5986 5987 
3992 1 5986 5988 
3993 1 5989 5990 
3994 1 5989 5991 
3995 1 5992 5993 
3996 1 5992 5994 
3997 1 5995 5996 
3998 1 5995 5997 
3999 1 5998 5999 
4000 1 5998 6000 

Angles

1 1 2 1 3 
2 1 5 4 6 
3 1 8 7 9 
4 1 11 10 12 
5 1 14 13 15 
6 1 17 16 18 
7 1 20 19 21 
8 1 23 22 24 
9 1 26 25 27 
10 1 29 28 30 
11 1 32 31 33 
12 1 35 34 36 
13 1 38 37 39 
14 1 41 40 42 
15 1 44 43 45 
16 1 47 46 48 
17 1 50 49 51 
18 1 53 52 54 
19 1 56 55 57 
20 1 59 58 60 
21 1 62 61 63 
22 1 65 64 66 
23 1 68 67 69 
24 1 71 70 72 
25 1 74 73 75 
26 1 77 76 78 
27 1 80 79 81 
28 1 83 82 84 
29 1 86 85 87 
30 1 89 88 90 
31 1 92 91 93 
32 1 95 94 96 
33 1 98 97 99 
34 1 101 100 102 
35 1 104 103 105 
36 1 107 106 108 
37 1 110 109 111 
38 1 113 112 114 
39 1 116 115 117 
40 1 119 118 120 
41 1 122 121 123 
42 1 125 124 126 
43 1 128 127 129 
44 1 131 130 132 
45 1 134 133 135 
46 1 137 136 138 
47 1 140 139 141 
48 1 143 142 144 
49 1 146 145 147 
50 1 149 148 150 
51 1 152 151 153 
52 1 155 154 156 
53 1 158 157 159 
54 1 161 160 162 
55 1 164 163 165 
56 1 167 166 168 
57 1 170 169 171 
58 1 173 172 174 
59 1 176 175 177 
60 1 179 178 180 
61 1 182 181 183 
62 1 185 184 186 
63 1 188 187 189 
64 1 191 190 192 
65 1 194 193 195 
66 1 197 196 198 
67 1 200 199 201 
68 1 203 202 204 
69 1 206 205 207 
70 1 209 208 210 
71 1 212 211 213 
72 1 215 214 216 
73 1 218 217 219 
74 1 221 220 222 
75 1 224 223 225 
76 1 227 226 228 
77 1 230 229 231 
78 1 233 232 234 
79 1 236 235 237 
80 1 239 238 240 
81 1 242 241 243 
82 1 245 244 246 
83 1 248 247 249 
84 1 251 250 252 
85 1 254 253 255 
86 1 257 256 258 
87 1 260 259 261 
88 1 263 262 264 
89 1 266 265 267 
90 1 269 268 270 
91 1 272 271 273 
92 1 275 274 276 
93 1 278 277 279 
94 1 281 280 282 
95 1 284 283 285 
96 1 287 286 288 
97 1 290 289 291 
98 1 293 292 294 
99 1 296 295 297 
100 1 299 298 300 
101 1 302 301 303 
102 1 305 304 306 
103 1 308 307 309 
104 1 311 310 312 
105 1 314 313 315 
106 1 317 316 318 
107 1 320 319 321 
108 1 323 322 324 
109 1 326 325 327 
110 1 329 328 330 
111 1 332 331 333 
112 1 335 334 336 
113 1 338 337 339 
114 1 341 340 342 
115 1 344 343 345 
116 1 347 346 348 
117 1 350 349 351 
118 1 353 352 354 
119 1 356 355 357 
120 1 359 358 360 
121 1 362 361 363 
122 1 365 364 366 
123 1 368 367 369 
124 1 371 370 372 
125 1 374 373 375 
126 1 377 376 378 
127 1 380 379 381 
128 1 383 382 384 
129 1 386 385 387 
130 1 389 388 390 
131 1 392 391 393 
132 1 395 394 396 
133 1 398 397 399 
134 1 401 400 402 
135 1 404 403 405 
136 1 407 406 408 
137 1 410 409 411 
138 1 413 412 414 
139 1 416 415 417 
140 1 419 418 420 
141 1 422 421 423 
142 1 425 424 426 
143 1 428 427 429 
144 1 431 430 432 
145 1 434 433 435 
146 1 437 436 438 
147 1 440 439 441 
148 1 443 442 444 
149 1 446 445 447 
150 1 449 448 450 
151 1 452 451 453 
152 1 455 454 456 
153 1 458 457 459 
154 1 461 460 462 
155 1 464 463 465 
156 1 467 466 468 
157 1 470 469 471 
158 1 473 472 474 
159 1 476 475 477 
160 1 479 478 480 
161 1 482 481 483 
162 1 485 484 486 
163 1 488 487 489 
164 1 491 490 492 
165 1 494 493 495 
166 1 497 496 498 
167 1 500 499 501 
168 1 503 502 504 
169 1 506 505 507 
170 1 509 508 510 
171 1 512 511 513 
172 1 515 514 516 
173 1 518 517 519 
174 1 521 520 522 
175 1 524 523 525 
176 1 527 526 528 
177 1 530 529 531 
178 1 533 532 534 
179 1 536 535 537 
180 1 539 538 540 
181 1 542 541 543 
182 1 545 544 546 
183 1 548 547 549 
184 1 551 550 552 
185 1 554 553 555 
186 1 557 556 558 
187 1 560 559 561 
188 1 563 562 564 
189 1 566 565 567 
190 1 569 568 570 
191 1 572 571 573 
192 1 575 574 576 
193 1 578 577 579 
194 1 581 580 582 
195 1 584 583 585 
196 1 587 586 588 
197 1 590 589 591 
198 1 593 592 594 
199 1 596 595 597 
200 1 599 598 600 
201 1 602 601 603 
202 1 605 604 606 
203 1 608 607 609 
204 1 611 610 612 
205 1 614 613 615 
206 1 617 616 618 
207 1 620 619 621 
208 1 623 622 624 
209 1 626 625 627 
210 1 629 628 630 
211 1 632 631 633 
212 1 635 634 636 
213 1 638 637 639 
214 1 641 640 642 
215 1 644 643 645 
216 1 647 646 648 
217 1 650 649 651 
218 1 653 652 654 
219 1 656 655 657 
220 1 659 658 660 
221 1 662 661 663 
222 1 665 664 666 
223 1 668 667 669 
224 1 671 670 672 
225 1 674 673 675 
226 1 677 676 678 
227 1 680 679 681 
228 1 683 682 684 
229 1 686 685 687 
230 1 689 688 690 
231 1 692 691 693 
232 1 695 694 696 
233 1 698 697 699 
234 1 701 700 702 
235 1 704 703 705 
236 1 707 706 708 
237 1 710 709 711 
238 1 713 712 714 
239 1 716 715 717 
240 1 719 718 720 
241 1 722 721 723 
242 1 725 724 726 
243 1 728 727 729 
244 1 731 730 732 
245 1 734 733 735 
246 1 737 736 738 
247 1 740 739 741 
248 1 743 742 744 
249 1 746 745 747 
250 1 749 748 750 
251 1 752 751 753 
252 1 755 754 756 
253 1 758 757 759 
254 1 761 760 762 
255 1 764 763 765 
256 1 767 766 768 
257 1 770 769 771 
258 1 773 772 774 
259 1 776 775 777 
260 1 779 778 780 
261 1 782 781 783 
262 1 785 784 786 
263 1 788 787 789 
264 1 791 790 792 
265 1 794 793 795 
266 1 797 796 798 
267 1 800 799 801 
268 1 803 802 804 
269 1 806 805 807 
270 1 809 808 810 
271 1 812 811 813 
272 1 815 814 816 
273 1 818 817 819 
274 1 821 820 822 
275 1 824 823 825 
276 1 827 826 828 
277 1 830 829 831 
278 1 833 832 834 
279 1 836 835 837 
280 1 839 838 840 
281 1 842 841 843 
282 1 845 844 846 
283 1 848 847 849 
284 1 851 850 852 
285 1 854 853 855 
286 1 857 856 858 
287 1 860 859 861 
288 1 863 862 864 
289 1 866 865 867 
290 1 869 868 870 
291 1 872 871 873 
292 1 875 874 876 
293 1 878 877 879 
294 1 881 880 882 
295 1 884 883 885 
296 1 887 886 888 
297 1 890 889 891 
298 1 893 892 894 
299 1 896 895 897 
300 1 899 898 900 
301 1 902 901 903 
302 1 905 904 906 
303 1 908 907 909 
304 1 911 910 912 
305 1 914 913 915 
306 1 917 916 918 
307 1 920 919 921 
308 1 923 922 924 
309 1 926 925 927 
310 1 929 928 930 
311 1 932 931 933 
312 1 935 934 936 
313 1 938 937 939 
314 1 941 940 942 
315 1 944 943 945 
316 1 947 946 948 
317 1 950 949 951 
318 1 953 952 954 
319 1 956 955 957 
320 1 959 958 960 
321 1 962 961 963 
322 1 965 964 966 
323 1 968 967 969 
324 1 971 970 972 
325 1 974 973 975 
326 1 977 976 978 
327 1 980 979 981 
328 1 983 982 984 
329 1 986 985 987 
330 1 989 988 990 
331 1 992 991 993 
332 1 995 994 996 
333 1 998 997 999 
334 1 1001 1000 1002 
335 1 1004 1003 1005 
336 1 1007 1006 1008 
337 1 1010 1009 1011 
338 1 1013 1012 1014 
339 1 1016 1015 1017 
340 1 1019 1018 1020 
341 1 1022 1021 1023 
342 1 1025 1024 1026 
343 1 1028 1027 1029 
344 1 1031 1030 1032 
345 1 1034 1033 1035 
346 1 1037 1036 1038 
347 1 1040 1039 1041 
348 1 1043 1042 1044 
349 1 1046 1045 1047 
350 1 1049 1048 1050 
351 1 1052 1051 1053 
352 1 1055 1054 1056 
353 1 1058 1057 1059 
354 1 1061 1060 1062 
355 1 1064 1063 1065 
356 1 1067 1066 1068 
357 1 1070 1069 1071 
358 1 1073 1072 1074 
359 1 1076 1075 1077 
360 1 1079 1078 1080 
361 1 1082 1081 1083 
362 1 1085 1084 1086 
363 1 1088 1087 1089 
364 1 1091 1090 1092 
365 1 1094 1093 1095 
366 1 1097 1096 1098 
367 1 1100 1099 1101 
368 1 1103 1102 1104 
369 1 1106 1105 1107 
370 1 1109 1108 1110 
371 1 1112 1111 1113 
372 1 1115 1114 1116 
373 1 1118 1117 1119 
374 1 1121 1120 1122 
375 1 1124 1123 1125 
376 1 1127 1126 1128 
377 1 1130 1129 1131 
378 1 1133 1132 1134 
379 1 1136 1135 1137 
380 1 1139 1138 1140 
381 1 1142 1141 1143 
382 1 1145 1144 1146 
383 1 1148 1147 1149 
384 1 1151 1150 1152 
385 1 1154 1153 1155 
386 1 1157 1156 1158 
387 1 1160 1159 1161 
388 1 1163 1162 1164 
389 1 1166 1165 1167 
390 1 1169 1168 1170 
391 1 1172 1171 1173 
392 1 1175 1174 1176 
393 1 1178 1177 1179 
394 1 1181 1180 1182 
395 1 1184 1183 1185 
396 1 1187 1186 1188 
397 1 1190 1189 1191 
398 1 1193 1192 1194 
399 1 1196 1195 1197 
400 1 1199 1198 1200 
401 1 1202 1201 1203 
402 1 1205 1204 1206 
403 1 1208 1207 1209 
404 1 1211 1210 1212 
405 1 1214 1213 1215 
406 1 1217 1216 1218 
407 1 1220 1219 1221 
408 1 1223 1222 1224 
409 1 1226 1225 1227 
410 1 1229 1228 1230 
411 1 1232 1231 1233 
412 1 1235 1234 1236 
413 1 1238 1237 1239 
414 1 1241 1240 1242 
415 1 1244 1243 1245 
416 1 1247 1246 1248 
417 1 1250 1249 1251 
418 1 1253 1252 1254 
419 1 1256 1255 1257 
420 1 1259 1258 1260 
421 1 1262 1261 1263 
422 1 1265 1264 1266 
423 1 1268 1267 1269 
424 1 1271 1270 1272 
425 1 1274 1273 1275 
426 1 1277 1276 1278 
427 1 1280 1279 1281 
428 1 1283 1282 1284 
429 1 1286 1285 1287 
430 1 1289 1288 1290 
431 1 1292 1291 1293 
432 1 1295 1294 1296 
433 1 1298 1297 1299 
434 1 1301 1300 1302 
435 1 1304 1303 1305 
436 1 1307 1306 1308 
437 1 1310 1309 1311 
438 1 1313 1312 1314 
439 1 1316 1315 1317 
440 1 1319 1318 1320 
441 1 1322 1321 1323 
442 1 1325 1324 1326 
443 1 1328 1327 1329 
444 1 1331 1330 1332 
445 1 1334 1333 1335 
446 1 1337 1336 1338 
447 1 1340 1339 1341 
448 1 1343 1342 1344 
449 1 1346 1345 1347 
450 1 1349 1348 1350 
451 1 1352 1351 1353 
452 1 1355 1354 1356 
453 1 1358 1357 1359 
454 1 1361 1360 1362 
455 1 1364 1363 1365 
456 1 1367 1366 1368 
457 1 1370 1369 1371 
458 1 1373 1372 1374 
459 1 1376 1375 1377 
460 1 1379 1378 1380 
461 1 1382 1381 1383 
462 1 1385 1384 1386 
463 1 1388 1387 1389 
464 1 1391 1390 1392 
465 1 1394 1393 1395 
466 1 1397 1396 1398 
467 1 1400 1399 1401 
468 1 1403 1402 1404 
469 1 1406 1405 1407 
470 1 1409 1408 1410 
471 1 1412 1411 1413 
472 1 1415 1414 1416 
473 1 1418 1417 1419 
474 1 1421 1420 1422 
475 1 1424 1423 1425 
476 1 1427 1426 1428 
477 1 1430 1429 1431 
478 1 1433 1432 1434 
479 1 1436 1435 1437 
480 1 1439 1438 1440 
481 1 1442 1441 1443 
482 1 1445 1444 1446 
483 1 1448 1447 1449 
484 1 1451 1450 1452 
485 1 1454 1453 1455 
486 1 1457 1456 1458 
487 1 1460 1459 1461 
488 1 1463 1462 1464 
489 1 1466 1465 1467 
490 1 1469 1468 1470 
491 1 1472 1471 1473 
492 1 1475 1474 1476 
493 1 1478 1477 1479 
494 1 1481 1480 1482 
495 1 1484 1483 1485 
496 1 1487 1486 1488 
497 1 1490 1489 1491 
498 1 1493 1492 1494 
499 1 1496 1495 1497 
500 1 1499 1498 1500 
501 1 1502 1501 1503 
502 1 1505 1504 1506 
503 1 1508 1507 1509 
504 1 1511 1510 1512 
505 1 1514 1513 1515 
506 1 1517 1516 1518 
507 1 1520 1519 1521 
508 1 1523 1522 1524 
509 1 1526 1525 1527 
510 1 1529 1528 1530 
511 1 1532 1531 1533 
512 1 1535 1534 1536 
513 1 1538 1537 1539 
514 1 1541 1540 1542 
515 1 1544 1543 1545 
516 1 1547 1546 1548 
517 1 1550 1549 1551 
518 1 1553 1552 1554 
519 1 1556 1555 1557 
520 1 1559 1558 1560 
521 1 1562 1561 1563 
522 1 1565 1564 1566 
523 1 1568 1567 1569 
524 1 1571 1570 1572 
525 1 1574 1573 1575 
526 1 1577 1576 1578 
527 1 1580 1579 1581 
528 1 1583 1582 1584 
529 1 1586 1585 1587 
530 1 1589 1588 1590 
531 1 1592 1591 1593 
532 1 1595 1594 1596 
533 1 1598 1597 1599 
534 1 1601 1600 1602 
535 1 1604 1603 1605 
536 1 1607 1606 1608 
537 1 1610 1609 1611 
538 1 1613 1612 1614 
539 1 1616 1615 1617 
540 1 1619 1618 1620 
541 1 1622 1621 1623 
542 1 1625 1624 1626 
543 1 1628 1627 1629 
544 1 1631 1630 1632 
545 1 1634 1633 1635 
546 1 1637 1636 1638 
547 1 1640 1639 1641 
548 1 1643 1642 1644 
549 1 1646 1645 1647 
550 1 1649 1648 1650 
551 1 1652 1651 1653 
552 1 1655 1654 1656 
553 1 1658 1657 1659 
554 1 1661 1660 1662 
555 1 1664 1663 1665 
556 1 1667 1666 1668 
557 1 1670 1669 1671 
558 1 1673 1672 1674 
559 1 1676 1675 1677 
560 1 1679 1678 1680 
561 1 1682 1681 1683 
562 1 1685 1684 1686 
563 1 1688 1687 1689 
564 1 1691 1690 1692 
565 1 1694 1693 1695 
566 1 1697 1696 1698 
567 1 1700 1699 1701 
568 1 1703 1702 1704 
569 1 1706 1705 1707 
570 1 1709 1708 1710 
571 1 1712 1711 1713 
572 1 1715 1714 1716 
573 1 1718 1717 1719 
574 1 1721 1720 1722 
575 1 1724 1723 1725 
576 1 1727 1726 1728 
577 1 1730 1729 1731 
578 1 1733 1732 1734 
579 1 1736 1735 1737 
580 1 1739 1738 1740 
581 1 1742 1741 1743 
582 1 1745 1744 1746 
583 1 1748 1747 1749 
584 1 1751 1750 1752 
585 1 1754 1753 1755 
586 1 1757 1756 1758 
587 1 1760 1759 1761 
588 1 1763 1762 1764 
589 1 1766 1765 1767 
590 1 1769 1768 1770 
591 1 1772 1771 1773 
592 1 1775 1774 1776 
593 1 1778 1777 1779 
594 1 1781 1780 1782 
595 1 1784 1783 1785 
596 1 1787 1786 1788 
597 1 1790 1789 1791 
598 1 1793 1792 1794 
599 1 1796 1795 1797 
600 1 1799 1798 1800 
601 1 1802 1801 1803 
602 1 1805 1804 1806 
603 1 1808 1807 1809 
604 1 1811 1810 1812 
605 1 1814 1813 1815 
606 1 1817 1816 1818 
607 1 1820 1819 1821 
608 1 1823 1822 1824 
609 1 1826 1825 1827 
610 1 1829 1828 1830 
611 1 1832 1831 1833 
612 1 1835 1834 1836 
613 1 1838 1837 1839 
614 1 1841 1840 1842 
615 1 1844 1843 1845 
616 1 1847 1846 1848 
617 1 1850 1849 1851 
618 1 1853 1852 1854 
619 1 1856 1855 1857 
620 1 1859 1858 1860 
621 1 1862 1861 1863 
622 1 1865 1864 1866 
623 1 1868 1867 1869 
624 1 1871 1870 1872 
625 1 1874 1873 1875 
626 1 1877 1876 1878 
627 1 1880 1879 1881 
628 1 1883 1882 1884 
629 1 1886 1885 1887 
630 1 1889 1888 1890 
631 1 1892 1891 1893 
632 1 1895 1894 1896 
633 1 1898 1897 1899 
634 1 1901 1900 1902 
635 1 1904 1903 1905 
636 1 1907 1906 1908 
637 1 1910 1909 1911 
638 1 1913 1912 1914 
639 1 1916 1915 1917 
640 1 1919 1918 1920 
641 1 1922 1921 1923 
642 1 1925 1924 1926 
643 1 1928 1927 1929 
644 1 1931 1930 1932 
645 1 1934 1933 1935 
646 1 1937 1936 1938 
647 1 1940 1939 1941 
648 1 1943 1942 1944 
649 1 1946 1945 1947 
650 1 1949 1948 1950 
651 1 1952 1951 1953 
652 1 1955 1954 1956 
653 1 1958 1957 1959 
654 1 1961 1960 1962 
655 1 1964 1963 1965 
656 1 1967 1966 1968 
657 1 1970 1969 1971 
658 1 1973 1972 1974 
659 1 1976 1975 1977 
660 1 1979 1978 1980 
661 1 1982 1981 1983 
662 1 1985 1984 1986 
663 1 1988 1987 1989 
664 1 1991 1990 1992 
665 1 1994 1993 1995 
666 1 1997 1996 1998 
667 1 2000 1999 2001 
668 1 2003 2002 2004 
669 1 2006 2005 2007 
670 1 2009 2008 2010 
671 1 2012 2011 2013 
672 1 2015 2014 2016 
673 1 2018 2017 2019 
674 1 2021 2020 2022 
675 1 2024 2023 2025 
676 1 2027 2026 2028 
677 1 2030 2029 2031 
678 1 2033 2032 2034 
679 1 2036 2035 2037 
680 1 2039 2038 2040 
681 1 2042 2041 2043 
682 1 2045 2044 2046 
683 1 2048 2047 2049 
684 1 2051 2050 2052 
685 1 2054 2053 2055 
686 1 2057 2056 2058 
687 1 2060 2059 2061 
688 1 2063 2062 2064 
689 1 2066 2065 2067 
690 1 2069 2068 2070 
691 1 2072 2071 2073 
692 1 2075 2074 2076 
693 1 2078 2077 2079 
694 1 2081 2080 2082 
695 1 2084 2083 2085 
696 1 2087 2086 2088 
697 1 2090 2089 2091 
698 1 2093 2092 2094 
699 1 2096 2095 2097 
700 1 2099 2098 2100 
701 1 2102 2101 2103 
702 1 2105 2104 2106 
703 1 2108 2107 2109 
704 1 2111 2110 2112 
705 1 2114 2113 2115 
706 1 2117 2116 2118 
707 1 2120 2119 2121 
708 1 2123 2122 2124 
709 1 2126 2125 2127 
710 1 2129 2128 2130 
711 1 2132 2131 2133 
712 1 2135 2134 2136 
713 1 2138 2137 2139 
714 1 2141 2140 2142 
715 1 2144 2143 2145 
716 1 2147 2146 2148 
717 1 2150 2149 2151 
718 1 2153 2152 2154 
719 1 2156 2155 2157 
720 1 2159 2158 2160 
721 1 2162 2161 2163 
722 1 2165 2164 2166 
723 1 2168 2167 2169 
724 1 2171 2170 2172 
725 1 2174 2173 2175 
726 1 2177 2176 2178 
727 1 2180 2179 2181 
728 1 2183 2182 2184 
729 1 2186 2185 2187 
730 1 2189 2188 2190 
731 1 2192 2191 2193 
732 1 2195 2194 2196 
733 1 2198 2197 2199 
734 1 2201 2200 2202 
735 1 2204 2203 2205 
736 1 2207 2206 2208 
737 1 2210 2209 2211 
738 1 2213 2212 2214 
739 1 2216 2215 2217 
740 1 2219 2218 2220 
741 1 2222 2221 2223 
742 1 2225 2224 2226 
743 1 2228 2227 2229 
744 1 2231 2230 2232 
745 1 2234 2233 2235 
746 1 2237 2236 2238 
747 1 2240 2239 2241 
748 1 2243 2242 2244 
749 1 2246 2245 2247 
750 1 2249 2248 2250 
751 1 2252 2251 2253 
752 1 2255 2254 2256 
753 1 2258 2257 2259 
754 1 2261 2260 2262 
755 1 2264 2263 2265 
756 1 2267 2266 2268 
757 1 2270 2269 2271 
758 1 2273 2272 2274 
759 1 2276 2275 2277 
760 1 2279 2278 2280 
761 1 2282 2281 2283 
762 1 2285 2284 2286 
763 1 2288 2287 2289 
764 1 2291 2290 2292 
765 1 2294 2293 2295 
766 1 2297 2296 2298 
767 1 2300 2299 2301 
768 1 2303 2302 2304 
769 1 2306 2305 2307 
770 1 2309 2308 2310 
771 1 2312 2311 2313 
772 1 2315 2314 2316 
773 1 2318 2317 2319 
774 1 2321 2320 2322 
775 1 2324 2323 2325 
776 1 2327 2326 2328 
777 1 2330 2329 2331 
778 1 2333 2332 2334 
779 1 2336 2335 2337 
780 1 2339 2338 2340 
781 1 2342 2341 2343 
782 1 2345 2344 2346 
783 1 2348 2347 2349 
784 1 2351 2350 2352 
785 1 2354 2353 2355 
786 1 2357 2356 2358 
787 1 2360 2359 2361 
788 1 2363 2362 2364 
789 1 2366 2365 2367 
790 1 2369 2368 2370 
791 1 2372 2371 2373 
792 1 2375 2374 2376 
793 1 2378 2377 2379 
794 1 2381 2380 2382 
795 1 2384 2383 2385 
796 1 2387 2386 2388 
797 1 2390 2389 2391 
798 1 2393 2392 2394 
799 1 2396 2395 2397 
800 1 2399 2398 2400 
801 1 2402 2401 2403 
802 1 2405 2404 2406 
803 1 2408 2407 2409 
804 1 2411 2410 2412 
805 1 2414 2413 2415 
806 1 2417 2416 2418 
807 1 2420 2419 2421 
808 1 2423 2422 2424 
809 1 2426 2425 2427 
810 1 2429 2428 2430 
811 1 2432 2431 2433 
812 1 2435 2434 2436 
813 1 2438 2437 2439 
814 1 2441 2440 2442 
815 1 2444 2443 2445 
816 1 2447 2446 2448 
817 1 2450 2449 2451 
818 1 2453 2452 2454 
819 1 2456 2455 2457 
820 1 2459 2458 2460 
821 1 2462 2461 2463 
822 1 2465 2464 2466 
823 1 2468 2467 2469 
824 1 2471 2470 2472 
825 1 2474 2473 2475 
826 1 2477 2476 2478 
827 1 2480 2479 2481 
828 1 2483 2482 2484 
829 1 2486 2485 2487 
830 1 2489 2488 2490 
831 1 2492 2491 2493 
832 1 2495 2494 2496 
833 1 2498 2497 2499 
834 1 2501 2500 2502 
835 1 2504 2503 2505 
836 1 2507 2506 2508 
837 1 2510 2509 2511 
838 1 2513 2512 2514 
839 1 2516 2515 2517 
840 1 2519 2518 2520 
841 1 2522 2521 2523 
842 1 2525 2524 2526 
843 1 2528 2527 2529 
844 1 2531 2530 2532 
845 1 2534 2533 2535 
846 1 2537 2536 2538 
847 1 2540 2539 2541 
848 1 2543 2542 2544 
849 1 2546 2545 2547 
850 1 2549 2548 2550 
851 1 2552 2551 2553 
852 1 2555 2554 2556 
853 1 2558 2557 2559 
854 1 2561 2560 2562 
855 1 2564 2563 2565 
856 1 2567 2566 2568 
857 1 2570 2569 2571 
858 1 2573 2572 2574 
859 1 2576 2575 2577 
860 1 2579 2578 2580 
861 1 2582 2581 2583 
862 1 2585 2584 2586 
863 1 2588 2587 2589 
864 1 2591 2590 2592 
865 1 2594 2593 2595 
866 1 2597 2596 2598 
867 1 2600 2599 2601 
868 1 2603 2602 2604 
869 1 2606 2605 2607 
870 1 2609 2608 2610 
871 1 2612 2611 2613 
872 1 2615 2614 2616 
873 1 2618 2617 2619 
874 1 2621 2620 2622 
875 1 2624 2623 2625 
876 1 2627 2626 2628 
877 1 2630 2629 2631 
878 1 2633 2632 2634 
879 1 2636 2635 2637 
880 1 2639 2638 2640 
881 1 2642 2641 2643 
882 1 2645 2644 2646 
883 1 2648 2647 2649 
884 1 2651 2650 2652 
885 1 2654 2653 2655 
886 1 2657 2656 2658 
887 1 2660 2659 2661 
888 1 2663 2662 2664 
889 1 2666 2665 2667 
890 1 2669 2668 2670 
891 1 2672 2671 2673 
892 1 2675 2674 2676 
893 1 2678 2677 2679 
894 1 2681 2680 2682 
895 1 2684 2683 2685 
896 1 2687 2686 2688 
897 1 2690 2689 2691 
898 1 2693 2692 2694 
899 1 2696 2695 2697 
900 1 2699 2698 2700 
901 1 2702 2701 2703 
902 1 2705 2704 2706 
903 1 2708 2707 2709 
904 1 2711 2710 2712 
905 1 2714 2713 2715 
906 1 2717 2716 2718 
907 1 2720 2719 2721 
908 1 2723 2722 2724 
909 1 2726 2725 2727 
910 1 2729 2728 2730 
911 1 2732 2731 2733 
912 1 2735 2734 2736 
913 1 2738 2737 2739 
914 1 2741 2740 2742 
915 1 2744 2743 2745 
916 1 2747 2746 2748 
917 1 2750 2749 2751 
918 1 2753 2752 2754 
919 1 2756 2755 2757 
920 1 2759 2758 2760 
921 1 2762 2761 2763 
922 1 2765 2764 2766 
923 1 2768 2767 2769 
924 1 2771 2770 2772 
925 1 2774 2773 2775 
926 1 2777 2776 2778 
927 1 2780 2779 2781 
928 1 2783 2782 2784 
929 1 2786 2785 2787 
930 1 2789 2788 2790 
931 1 2792 2791 2793 
932 1 2795 2794 2796 
933 1 2798 2797 2799 
934 1 2801 2800 2802 
935 1 2804 2803 2805 
936 1 2807 2806 2808 
937 1 2810 2809 2811 
938 1 2813 2812 2814 
939 1 2816 2815 2817 
940 1 2819 2818 2820 
941 1 2822 2821 2823 
942 1 2825 2824 2826 
943 1 2828 2827 2829 
944 1 2831 2830 2832 
945 1 2834 2833 2835 
946 1 2837 2836 2838 
947 1 2840 2839 2841 
948 1 2843 2842 2844 
949 1 2846 2845 2847 
950 1 2849 2848 2850 
951 1 2852 2851 2853 
952 1 2855 2854 2856 
953 1 2858 2857 2859 
954 1 2861 2860 2862 
955 1 2864 2863 2865 
956 1 2867 2866 2868 
957 1 2870 2869 2871 
958 1 2873 2872 2874 
959 1 2876 2875 2877 
960 1 2879 2878 2880 
961 1 2882 2881 2883 
962 1 2885 2884 2886 
963 1 2888 2887 2889 
964 1 2891 2890 2892 
965 1 2894 2893 2895 
966 1 2897 2896 2898 
967 1 2900 2899 2901 
968 1 2903 2902 2904 
969 1 2906 2905 2907 
970 1 2909 2908 2910 
971 1 2912 2911 2913 
972 1 2915 2914 2916 
973 1 2918 2917 2919 
974 1 2921 2920 2922 
975 1 2924 2923 2925 
976 1 2927 2926 2928 
977 1 2930 2929 2931 
978 1 2933 2932 2934 
979 1 2936 2935 2937 
980 1 2939 2938 2940 
981 1 2942 2941 2943 
982 1 2945 2944 2946 
983 1 2948 2947 2949 
984 1 2951 2950 2952 
985 1 2954 2953 2955 
986 1 2957 2956 2958 
987 1 2960 2959 2961 
988 1 2963 2962 2964 
989 1 2966 2965 2967 
990 1 2969 2968 2970 
991 1 2972 2971 2973 
992 1 2975 2974 2976 
993 1 2978 2977 2979 
994 1 2981 2980 2982 
995 1 2984 2983 2985 
996 1 2987 2986 2988 
997 1 2990 2989 2991 
998 1 2993 2992 2994 
999 1 2996 2995 2997 
1000 1 2999 2998 3000 
1001 1 3002 3001 3003 
1002 1 3005 3004 3006 
1003 1 3008 3007 3009 
1004 1 3011 3010 3012 
1005 1 3014 3013 3015 
1006 1 3017 3016 3018 
1007 1 3020 3019 3021 
1008 1 3023 3022 3024 
1009 1 3026 3025 3027 
1010 1 3029 3028 3030 
1011 1 3032 3031 3033 
1012 1 3035 3034 3036 
1013 1 3038 3037 3039 
1014 1 3041 3040 3042 
1015 1 3044 3043 3045 
1016 1 3047 3046 3048 
1017 1 3050 3049 3051 
1018 1 3053 3052 3054 
1019 1 3056 3055 3057 
1020 1 3059 3058 3060 
1021 1 3062 3061 3063 
1022 1 3065 3064 3066 
1023 1 3068 3067 3069 
1024 1 3071 3070 3072 
1025 1 3074 3073 3075 
1026 1 3077 3076 3078 
1027 1 3080 3079 3081 
1028 1 3083 3082 3084 
1029 1 3086 3085 3087 
1030 1 3089 3088 3090 
1031 1 3092 3091 3093 
1032 1 3095 3094 3096 
1033 1 3098 3097 3099 
1034 1 3101 3100 3102 
1035 1 3104 3103 3105 
1036 1 3107 3106 3108 
1037 1 3110 3109 3111 
1038 1 3113 3112 3114 
1039 1 3116 3115 3117 
1040 1 3119 3118 3120 
1041 1 3122 3121 3123 
1042 1 3125 3124 3126 
1043 1 3128 3127 3129 
1044 1 3131 3130 3132 
1045 1 3134 3133 3135 
1046 1 3137 3136 3138 
1047 1 3140 3139 3141 
1048 1 3143 3142 3144 
1049 1 3146 3145 3147 
1050 1 3149 3148 3150 
1051 1 3152 3151 3153 
1052 1 3155 3154 3156 
1053 1 3158 3157 3159 
1054 1 3161 3160 3162 
1055 1 3164 3163 3165 
1056 1 3167 3166 3168 
1057 1 3170 3169 3171 
1058 1 3173 3172 3174 
1059 1 3176 3175 3177 
1060 1 3179 3178 3180 
1061 1 3182 3181 3183 
1062 1 3185 3184 3186 
1063 1 3188 3187 3189 
1064 1 3191 3190 3192 
1065 1 3194 3193 3195 
1066 1 3197 3196 3198 
1067 1 3200 3199 3201 
1068 1 3203 3202 3204 
1069 1 3206 3205 3207 
1070 1 3209 3208 3210 
1071 1 3212 3211 3213 
1072 1 3215 3214 3216 
1073 1 3218 3217 3219 
1074 1 3221 3220 3222 
1075 1 3224 3223 3225 
1076 1 3227 3226 3228 
1077 1 3230 3229 3231 
1078 1 3233 3232 3234 
1079 1 3236 3235 3237 
1080 1 3239 3238 3240 
1081 1 3242 3241 3243 
1082 1 3245 3244 3246 
1083 1 3248 3247 3249 
1084 1 3251 3250 3252 
1085 1 3254 3253 3255 
1086 1 3257 3256 3258 
1087 1 3260 3259 3261 
1088 1 3263 3262 3264 
1089 1 3266 3265 3267 
1090 1 3269 3268 3270 
1091 1 3272 3271 3273 
1092 1 3275 3274 3276 
1093 1 3278 3277 3279 
1094 1 3281 3280 3282 
1095 1 3284 3283 3285 
1096 1 3287 3286 3288 
1097 1 3290 3289 3291 
1098 1 3293 3292 3294 
1099 1 3296 3295 3297 
1100 1 3299 3298 3300 
1101 1 3302 3301 3303 
1102 1 3305 3304 3306 
1103 1 3308 3307 3309 
1104 1 3311 3310 3312 
1105 1 3314 3313 3315 
1106 1 3317 3316 3318 
1107 1 3320 3319 3321 
1108 1 3323 3322 3324 
1109 1 3326 3325 3327 
1110 1 3329 3328 3330 
1111 1 3332 3331 3333 
1112 1 3335 3334 3336 
1113 1 3338 3337 3339 
1114 1 3341 3340 3342 
1115 1 3344 3343 3345 
1116 1 3347 3346 3348 
1117 1 3350 3349 3351 
1118 1 3353 3352 3354 
1119 1 3356 3355 3357 
1120 1 3359 3358 3360 
1121 1 3362 3361 3363 
1122 1 3365 3364 3366 
1123 1 3368 3367 3369 
1124 1 3371 3370 3372 
1125 1 3374 3373 3375 
1126 1 3377 3376 3378 
1127 1 3380 3379 3381 
1128 1 3383 3382 3384 
1129 1 3386 3385 3387 
1130 1 3389 3388 3390 
1131 1 3392 3391 3393 
1132 1 3395 3394 3396 
1133 1 3398 3397 3399 
1134 1 3401 3400 3402 
1135 1 3404 3403 3405 
1136 1 3407 3406 3408 
1137 1 3410 3409 3411 
1138 1 3413 3412 3414 
1139 1 3416 3415 3417 
1140 1 3419 3418 3420 
1141 1 3422 3421 3423 
1142 1 3425 3424 3426 
1143 1 3428 3427 3429 
1144 1 3431 3430 3432 
1145 1 3434 3433 3435 
1146 1 3437 3436 3438 
1147 1 3440 3439 3441 
1148 1 3443 3442 3444 
1149 1 3446 3445 3447 
1150 1 3449 3448 3450 
1151 1 3452 3451 3453 
1152 1 3455 3454 3456 
1153 1 3458 3457 3459 
1154 1 3461 3460 3462 
1155 1 3464 3463 3465 
1156 1 3467 3466 3468 
1157 1 3470 3469 3471 
1158 1 3473 3472 3474 
1159 1 3476 3475 3477 
1160 1 3479 3478 3480 
1161 1 3482 3481 3483 
1162 1 3485 3484 3486 
1163 1 3488 3487 3489 
1164 1 3491 3490 3492 
1165 1 3494 3493 3495 
1166 1 3497 3496 3498 
1167 1 3500 3499 3501 
1168 1 3503 3502 3504 
1169 1 3506 3505 3507 
1170 1 3509 3508 3510 
1171 1 3512 3511 3513 
1172 1 3515 3514 3516 
1173 1 3518 3517 3519 
1174 1 3521 3520 3522 
1175 1 3524 3523 3525 
1176 1 3527 3526 3528 
1177 1 3530 3529 3531 
1178 1 3533 3532 3534 
1179 1 3536 3535 3537 
1180 1 3539 3538 3540 
1181 1 3542 3541 3543 
1182 1 3545 3544 3546 
1183 1 3548 3547 3549 
1184 1 3551 3550 3552 
1185 1 3554 3553 3555 
1186 1 3557 3556 3558 
1187 1 3560 3559 3561 
1188 1 3563 3562 3564 
1189 1 3566 3565 3567 
1190 1 3569 3568 3570 
1191 1 3572 3571 3573 
1192 1 3575 3574 3576 
1193 1 3578 3577 3579 
1194 1 3581 3580 3582 
1195 1 3584 3583 3585 
1196 1 3587 3586 3588 
1197 1 3590 3589 3591 
1198 1 3593 3592 3594 
1199 1 3596 3595 3597 
1200 1 3599 3598 3600 
1201 1 3602 3601 3603 
1202 1 3605 3604 3606 
1203 1 3608 3607 3609 
1204 1 3611 3610 3612 
1205 1 3614 3613 3615 
1206 1 3617 3616 3618 
1207 1 3620 3619 3621 
1208 1 3623 3622 3624 
1209 1 3626 3625 3627 
1210 1 3629 3628 3630 
1211 1 3632 3631 3633 
1212 1 3635 3634 3636 
1213 1 3638 3637 3639 
1214 1 3641 3640 3642 
1215 1 3644 3643 3645 
1216 1 3647 3646 3648 
1217 1 3650 3649 3651 
1218 1 3653 3652 3654 
1219 1 3656 3655 3657 
1220 1 3659 3658 3660 
1221 1 3662 3661 3663 
1222 1 3665 3664 3666 
1223 1 3668 3667 3669 
1224 1 3671 3670 3672 
1225 1 3674 3673 3675 
1226 1 3677 3676 3678 
1227 1 3680 3679 3681 
1228 1 3683 3682 3684 
1229 1 3686 3685 3687 
1230 1 3689 3688 3690 
1231 1 3692 3691 3693 
1232 1 3695 3694 3696 
1233 1 3698 3697 3699 
1234 1 3701 3700 3702 
1235 1 3704 3703 3705 
1236 1 3707 3706 3708 
1237 1 3710 3709 3711 
1238 1 3713 3712 3714 
1239 1 3716 3715 3717 
1240 1 3719 3718 3720 
1241 1 3722 3721 3723 
1242 1 3725 3724 3726 
1243 1 3728 3727 3729 
1244 1 3731 3730 3732 
1245 1 3734 3733 3735 
1246 1 3737 3736 3738 
1247 1 3740 3739 3741 
1248 1 3743 3742 3744 
1249 1 3746 3745 3747 
1250 1 3749 3748 3750 
1251 1 3752 3751 3753 
1252 1 3755 3754 3756 
1253 1 3758 3757 3759 
1254 1 3761 3760 3762 
1255 1 3764 3763 3765 
1256 1 3767 3766 3768 
1257 1 3770 3769 3771 
1258 1 3773 3772 3774 
1259 1 3776 3775 3777 
1260 1 3779 3778 3780 
1261 1 3782 3781 3783 
1262 1 3785 3784 3786 
1263 1 3788 3787 3789 
1264 1 3791 3790 3792 
1265 1 3794 3793 3795 
1266 1 3797 3796 3798 
1267 1 3800 3799 3801 
1268 1 3803 3802 3804 
1269 1 3806 3805 3807 
1270 1 3809 3808 3810 
1271 1 3812 3811 3813 
1272 1 3815 3814 3816 
1273 1 3818 3817 3819 
1274 1 3821 3820 3822 
1275 1 3824 3823 3825 
1276 1 3827 3826 3828 
1277 1 3830 3829 3831 
1278 1 3833 3832 3834 
1279 1 3836 3835 3837 
1280 1 3839 3838 3840 
1281 1 3842 3841 3843 
1282 1 3845 3844 3846 
1283 1 3848 3847 3849 
1284 1 3851 3850 3852 
1285 1 3854 3853 3855 
1286 1 3857 3856 3858 
1287 1 3860 3859 3861 
1288 1 3863 3862 3864 
1289 1 3866 3865 3867 
1290 1 3869 3868 3870 
1291 1 3872 3871 3873 
1292 1 3875 3874 3876 
1293 1 3878 3877 3879 
1294 1 3881 3880 3882 
1295 1 3884 3883 3885 
1296 1 3887 3886 3888 
1297 1 3890 3889 3891 
1298 1 3893 3892 3894 
1299 1 3896 3895 3897 
1300 1 3899 3898 3900 
1301 1 3902 3901 3903 
1302 1 3905 3904 3906 
1303 1 3908 3907 3909 
1304 1 3911 3910 3912 
1305 1 3914 3913 3915 
1306 1 3917 3916 3918 
1307 1 3920 3919 3921 
1308 1 3923 3922 3924 
1309 1 3926 3925 3927 
1310 1 3929 3928 3930 
1311 1 3932 3931 3933 
1312 1 3935 3934 3936 
1313 1 3938 3937 3939 
1314 1 3941 3940 3942 
1315 1 3944 3943 3945 
1316 1 3947 3946 3948 
1317 1 3950 3949 3951 
1318 1 3953 3952 3954 
1319 1 3956 3955 3957 
1320 1 3959 3958 3960 
1321 1 3962 3961 3963 
1322 1 3965 3964 3966 
1323 1 3968 3967 3969 
1324 1 3971 3970 3972 
1325 1 3974 3973 3975 
1326 1 3977 3976 3978 
1327 1 3980 3979 3981 
1328 1 3983 3982 3984 
1329 1 3986 3985 3987 
1330 1 3989 3988 3990 
1331 1 3992 3991 3993 
1332 1 3995 3994 3996 
1333 1 3998 3997 3999 
1334 1 4001 4000 4002 
1335 1 4004 4003 4005 
1336 1 4007 4006 4008 
1337 1 4010 4009 4011 
1338 1 4013 4012 4014 
1339 1 4016 4015 4017 
1340 1 4019 4018 4020 
1341 1 4022 4021 4023 
1342 1 4025 4024 4026 
1343 1 4028 4027 4029 
1344 1 4031 4030 4032 
1345 1 4034 4033 4035 
1346 1 4037 4036 4038 
1347 1 4040 4039 4041 
1348 1 4043 4042 4044 
1349 1 4046 4045 4047 
1350 1 4049 4048 4050 
1351 1 4052 4051 4053 
1352 1 4055 4054 4056 
1353 1 4058 4057 4059 
1354 1 4061 4060 4062 
1355 1 4064 4063 4065 
1356 1 4067 4066 4068 
1357 1 4070 4069 4071 
1358 1 4073 4072 4074 
1359 1 4076 4075 4077 
1360 1 4079 4078 4080 
1361 1 4082 4081 4083 
1362 1 4085 4084 4086 
1363 1 4088 4087 4089 
1364 1 4091 4090 4092 
1365 1 4094 4093 4095 
1366 1 4097 4096 4098 
1367 1 4100 4099 4101 
1368 1 4103 4102 4104 
1369 1 4106 4105 4107 
1370 1 4109 4108 4110 
1371 1 4112 4111 4113 
1372 1 4115 4114 4116 
1373 1 4118 4117 4119 
1374 1 4121 4120 4122 
1375 1 4124 4123 4125 
1376 1 4127 4126 4128 
1377 1 4130 4129 4131 
1378 1 4133 4132 4134 
1379 1 4136 4135 4137 
1380 1 4139 4138 4140 
1381 1 4142 4141 4143 
1382 1 4145 4144 4146 
1383 1 4148 4147 4149 
1384 1 4151 4150 4152 
1385 1 4154 4153 4155 
1386 1 4157 4156 4158 
1387 1 4160 4159 4161 
1388 1 4163 4162 4164 
1389 1 4166 4165 4167 
1390 1 4169 4168 4170 
1391 1 4172 4171 4173 
1392 1 4175 4174 4176 
1393 1 4178 4177 4179 
1394 1 4181 4180 4182 
1395 1 4184 4183 4185 
1396 1 4187 4186 4188 
1397 1 4190 4189 4191 
1398 1 4193 4192 4194 
1399 1 4196 4195 4197 
1400 1 4199 4198 4200 
1401 1 4202 4201 4203 
1402 1 4205 4204 4206 
1403 1 4208 4207 4209 
1404 1 4211 4210 4212 
1405 1 4214 4213 4215 
1406 1 4217 4216 4218 
1407 1 4220 4219 4221 
1408 1 4223 4222 4224 
1409 1 4226 4225 4227 
1410 1 4229 4228 4230 
1411 1 4232 4231 4233 
1412 1 4235 4234 4236 
1413 1 4238 4237 4239 
1414 1 4241 4240 4242 
1415 1 4244 4243 4245 
1416 1 4247 4246 4248 
1417 1 4250 4249 4251 
1418 1 4253 4252 4254 
1419 1 4256 4255 4257 
1420 1 4259 4258 4260 
1421 1 4262 4261 4263 
1422 1 4265 4264 4266 
1423 1 4268 4267 4269 
1424 1 4271 4270 4272 
1425 1 4274 4273 4275 
1426 1 4277 4276 4278 
1427 1 4280 4279 4281 
1428 1 4283 4282 4284 
1429 1 4286 4285 4287 
1430 1 4289 4288 4290 
1431 1 4292 4291 4293 
1432 1 4295 4294 4296 
1433 1 4298 4297 4299 
1434 1 4301 4300 4302 
1435 1 4304 4303 4305 
1436 1 4307 4306 4308 
1437 1 4310 4309 4311 
1438 1 4313 4312 4314 
1439 1 4316 4315 4317 
1440 1 4319 4318 4320 
1441 1 4322 4321 4323 
1442 1 4325 4324 4326 
1443 1 4328 4327 4329 
1444 1 4331 4330 4332 
1445 1 4334 4333 4335 
1446 1 4337 4336 4338 
1447 1 4340 4339 4341 
1448 1 4343 4342 4344 
1449 1 4346 4345 4347 
1450 1 4349 4348 4350 
1451 1 4352 4351 4353 
1452 1 4355 4354 4356 
1453 1 4358 4357 4359 
1454 1 4361 4360 4362 
1455 1 4364 4363 4365 
1456 1 4367 4366 4368 
1457 1 4370 4369 4371 
1458 1 4373 4372 4374 
1459 1 4376 4375 4377 
1460 1 4379 4378 4380 
1461 1 4382 4381 4383 
1462 1 4385 4384 4386 
1463 1 4388 4387 4389 
1464 1 4391 4390 4392 
1465 1 4394 4393 4395 
1466 1 4397 4396 4398 
1467 1 4400 4399 4401 
1468 1 4403 4402 4404 
1469 1 4406 4405 4407 
1470 1 4409 4408 4410 
1471 1 4412 4411 4413 
1472 1 4415 4414 4416 
1473 1 4418 4417 4419 
1474 1 4421 4420 4422 
1475 1 4424 4423 4425 
1476 1 4427 4426 4428 
1477 1 4430 4429 4431 
1478 1 4433 4432 4434 
1479 1 4436 4435 4437 
1480 1 4439 4438 4440 
1481 1 4442 4441 4443 
1482 1 4445 4444 4446 
1483 1 4448 4447 4449 
1484 1 4451 4450 4452 
1485 1 4454 4453 4455 
1486 1 4457 4456 4458 
1487 1 4460 4459 4461 
1488 1 4463 4462 4464 
1489 1 4466 4465 4467 
1490 1 4469 4468 4470 
1491 1 4472 4471 4473 
1492 1 4475 4474 4476 
1493 1 4478 4477 4479 
1494 1 4481 4480 4482 
1495 1 4484 4483 4485 
1496 1 4487 4486 4488 
1497 1 4490 4489 4491 
1498 1 4493 4492 4494 
1499 1 4496 4495 4497 
1500 1 4499 4498 4500 
1501 1 4502 4501 4503 
1502 1 4505 4504 4506 
1503 1 4508 4507 4509 
1504 1 4511 4510 4512 
1505 1 4514 4513 4515 
1506 1 4517 4516 4518 
1507 1 4520 4519 4521 
1508 1 4523 4522 4524 
1509 1 4526 4525 4527 
1510 1 4529 4528 4530 
1511 1 4532 4531 4533 
1512 1 4535 4534 4536 
1513 1 4538 4537 4539 
1514 1 4541 4540 4542 
1515 1 4544 4543 4545 
1516 1 4547 4546 4548 
1517 1 4550 4549 4551 
1518 1 4553 4552 4554 
1519 1 4556 4555 4557 
1520 1 4559 4558 4560 
1521 1 4562 4561 4563 
1522 1 4565 4564 4566 
1523 1 4568 4567 4569 
1524 1 4571 4570 4572 
1525 1 4574 4573 4575 
1526 1 4577 4576 4578 
1527 1 4580 4579 4581 
1528 1 4583 4582 4584 
1529 1 4586 4585 4587 
1530 1 4589 4588 4590 
1531 1 4592 4591 4593 
1532 1 4595 4594 4596 
1533 1 4598 4597 4599 
1534 1 4601 4600 4602 
1535 1 4604 4603 4605 
1536 1 4607 4606 4608 
1537 1 4610 4609 4611 
1538 1 4613 4612 4614 
1539 1 4616 4615 4617 
1540 1 4619 4618 4620 
1541 1 4622 4621 4623 
1542 1 4625 4624 4626 
1543 1 4628 4627 4629 
1544 1 4631 4630 4632 
1545 1 4634 4633 4635 
1546 1 4637 4636 4638 
1547 1 4640 4639 4641 
1548 1 4643 4642 4644 
1549 1 4646 4645 4647 
1550 1 4649 4648 4650 
1551 1 4652 4651 4653 
1552 1 4655 4654 4656 
1553 1 4658 4657 4659 
1554 1 4661 4660 4662 
1555 1 4664 4663 4665 
1556 1 4667 4666 4668 
1557 1 4670 4669 4671 
1558 1 4673 4672 4674 
1559 1 4676 4675 4677 
1560 1 4679 4678 4680 
1561 1 4682 4681 4683 
1562 1 4685 4684 4686 
1563 1 4688 4687 4689 
1564 1 4691 4690 4692 
1565 1 4694 4693 4695 
1566 1 4697 4696 4698 
1567 1 4700 4699 4701 
1568 1 4703 4702 4704 
1569 1 4706 4705 4707 
1570 1 4709 4708 4710 
1571 1 4712 4711 4713 
1572 1 4715 4714 4716 
1573 1 4718 4717 4719 
1574 1 4721 4720 4722 
1575 1 4724 4723 4725 
1576 1 4727 4726 4728 
1577 1 4730 4729 4731 
1578 1 4733 4732 4734 
1579 1 4736 4735 4737 
1580 1 4739 4738 4740 
1581 1 4742 4741 4743 
1582 1 4745 4744 4746 
1583 1 4748 4747 4749 
1584 1 4751 4750 4752 
1585 1 4754 4753 4755 
1586 1 4757 4756 4758 
1587 1 4760 4759 4761 
1588 1 4763 4762 4764 
1589 1 4766 4765 4767 
1590 1 4769 4768 4770 
1591 1 4772 4771 4773 
1592 1 4775 4774 4776 
1593 1 4778 4777 4779 
1594 1 4781 4780 4782 
1595 1 4784 4783 4785 
1596 1 4787 4786 4788 
1597 1 4790 4789 4791 
1598 1 4793 4792 4794 
1599 1 4796 4795 4797 
1600 1 4799 4798 4800 
1601 1 4802 4801 4803 
1602 1 4805 4804 4806 
1603 1 4808 4807 4809 
1604 1 4811 4810 4812 
1605 1 4814 4813 4815 
1606 1 4817 4816 4818 
1607 1 4820 4819 4821 
1608 1 4823 4822 4824 
1609 1 4826 4825 4827 
1610 1 4829 4828 4830 
1611 1 4832 4831 4833 
1612 1 4835 4834 4836 
1613 1 4838 4837 4839 
1614 1 4841 4840 4842 
1615 1 4844 4843 4845 
1616 1 4847 4846 4848 
1617 1 4850 4849 4851 
1618 1 4853 4852 4854 
1619 1 4856 4855 4857 
1620 1 4859 4858 4860 
1621 1 4862 4861 4863 
1622 1 4865 4864 4866 
1623 1 4868 4867 4869 
1624 1 4871 4870 4872 
1625 1 4874 4873 4875 
1626 1 4877 4876 4878 
1627 1 4880 4879 4881 
1628 1 4883 4882 4884 
1629 1 4886 4885 4887 
1630 1 4889 4888 4890 
1631 1 4892 4891 4893 
1632 1 4895 4894 4896 
1633 1 4898 4897 4899 
1634 1 4901 4900 4902 
1635 1 4904 4903 4905 
1636 1 4907 4906 4908 
1637 1 4910 4909 4911 
1638 1 4913 4912 4914 
1639 1 4916 4915 4917 
1640 1 4919 4918 4920 
1641 1 4922 4921 4923 
1642 1 4925 4924 4926 
1643 1 4928 4927 4929 
1644 1 4931 4930 4932 
1645 1 4934 4933 4935 
1646 1 4937 4936 4938 
1647 1 4940 4939 4941 
1648 1 4943 4942 4944 
1649 1 4946 4945 4947 
1650 1 4949 4948 4950 
1651 1 4952 4951 4953 
1652 1 4955 4954 4956 
1653 1 4958 4957 4959 
1654 1 4961 4960 4962 
1655 1 4964 4963 4965 
1656 1 4967 4966 4968 
1657 1 4970 4969 4971 
1658 1 4973 4972 4974 
1659 1 4976 4975 4977 
1660 1 4979 4978 4980 
1661 1 4982 4981 4983 
1662 1 4985 4984 4986 
1663 1 4988 4987 4989 
1664 1 4991 4990 4992 
1665 1 4994 4993 4995 
1666 1 4997 4996 4998 
1667 1 5000 4999 5001 
1668 1 5003 5002 5004 
1669 1 5006 5005 5007 
1670 1 5009 5008 5010 
1671 1 5012 5011 5013 
1672 1 5015 5014 5016 
1673 1 5018 5017 5019 
1674 1 5021 5020 5022 
1675 1 5024 5023 5025 
1676 1 5027 5026 5028 
1677 1 5030 5029 5031 
1678 1 5033 5032 5034 
1679 1 5036 5035 5037 
1680 1 5039 5038 5040 
1681 1 5042 5041 5043 
1682 1 5045 5044 5046 
1683 1 5048 5047 5049 
1684 1 5051 5050 5052 
1685 1 5054 5053 5055 
1686 1 5057 5056 5058 
1687 1 5060 5059 5061 
1688 1 5063 5062 5064 
1689 1 5066 5065 5067 
1690 1 5069 5068 5070 
1691 1 5072 5071 5073 
1692 1 5075 5074 5076 
1693 1 5078 5077 5079 
1694 1 5081 5080 5082 
1695 1 5084 5083 5085 
1696 1 5087 5086 5088 
1697 1 5090 5089 5091 
1698 1 5093 5092 5094 
1699 1 5096 5095 5097 
1700 1 5099 5098 5100 
1701 1 5102 5101 5103 
1702 1 5105 5104 5106 
1703 1 5108 5107 5109 
1704 1 5111 5110 5112 
1705 1 5114 5113 5115 
1706 1 5117 5116 5118 
1707 1 5120 5119 5121 
1708 1 5123 5122 5124 
1709 1 5126 5125 5127 
1710 1 5129 5128 5130 
1711 1 5132 5131 5133 
1712 1 5135 5134 5136 
1713 1 5138 5137 5139 
1714 1 5141 5140 5142 
1715 1 5144 5143 5145 
1716 1 5147 5146 5148 
1717 1 5150 5149 5151 
1718 1 5153 5152 5154 
1719 1 5156 5155 5157 
1720 1 5159 5158 5160 
1721 1 5162 5161 5163 
1722 1 5165 5164 5166 
1723 1 5168 5167 5169 
1724 1 5171 5170 5172 
1725 1 5174 5173 5175 
1726 1 5177 5176 5178 
1727 1 5180 5179 5181 
1728 1 5183 5182 5184 
1729 1 5186 5185 5187 
1730 1 5189 5188 5190 
1731 1 5192 5191 5193 
1732 1 5195 5194 5196 
1733 1 5198 5197 5199 
1734 1 5201 5200 5202 
1735 1 5204 5203 5205 
1736 1 5207 5206 5208 
1737 1 5210 5209 5211 
1738 1 5213 5212 5214 
1739 1 5216 5215 5217 
1740 1 5219 5218 5220 
1741 1 5222 5221 5223 
1742 1 5225 5224 5226 
1743 1 5228 5227 5229 
1744 1 5231 5230 5232 
1745 1 5234 5233 5235 
1746 1 5237 5236 5238 
1747 1 5240 5239 5241 
1748 1 5243 5242 5244 
1749 1 5246 5245 5247 
1750 1 5249 5248 5250 
1751 1 5252 5251 5253 
1752 1 5255 5254 5256 
1753 1 5258 5257 5259 
1754 1 5261 5260 5262 
1755 1 5264 5263 5265 
1756 1 5267 5266 5268 
1757 1 5270 5269 5271 
1758 1 5273 5272 5274 
1759 1 5276 5275 5277 
1760 1 5279 5278 5280 
1761 1 5282 5281 5283 
1762 1 5285 5284 5286 
1763 1 5288 5287 5289 
1764 1 5291 5290 5292 
1765 1 5294 5293 5295 
1766 1 5297 5296 5298 
1767 1 5300 5299 5301 
1768 1 5303 5302 5304 
1769 1 5306 5305 5307 
1770 1 5309 5308 5310 
1771 1 5312 5311 5313 
1772 1 5315 5314 5316 
1773 1 5318 5317 5319 
1774 1 5321 5320 5322 
1775 1 5324 5323 5325 
1776 1 5327 5326 5328 
1777 1 5330 5329 5331 
1778 1 5333 5332 5334 
1779 1 5336 5335 5337 
1780 1 5339 5338 5340 
1781 1 5342 5341 5343 
1782 1 5345 5344 5346 
1783 1 5348 5347 5349 
1784 1 5351 5350 5352 
1785 1 5354 5353 5355 
1786 1 5357 5356 5358 
1787 1 5360 5359 5361 
1788 1 5363 5362 5364 
1789 1 5366 5365 5367 
1790 1 5369 5368 5370 
1791 1 5372 5371 5373 
1792 1 5375 5374 5376 
1793 1 5378 5377 5379 
1794 1 5381 5380 5382 
1795 1 5384 5383 5385 
1796 1 5387 5386 5388 
1797 1 5390 5389 5391 
1798 1 5393 5392 5394 
1799 1 5396 5395 5397 
1800 1 5399 5398 5400 
1801 1 5402 5401 5403 
1802 1 5405 5404 5406 
1803 1 5408 5407 5409 
1804 1 5411 5410 5412 
1805 1 5414 5413 5415 
1806 1 5417 5416 5418 
1807 1 5420 5419 5421 
1808 1 5423 5422 5424 
1809 1 5426 5425 5427 
1810 1 5429 5428 5430 
1811 1 5432 5431 5433 
1812 1 5435 5434 5436 
1813 1 5438 5437 5439 
1814 1 5441 5440 5442 
1815 1 5444 5443 5445 
1816 1 5447 5446 5448 
1817 1 5450 5449 5451 
1818 1 5453 5452 5454 
1819 1 5456 5455 5457 
1820 1 5459 5458 5460 
1821 1 5462 5461 5463 
1822 1 5465 5464 5466 
1823 1 5468 5467 5469 
1824 1 5471 5470 5472 
1825 1 5474 5473 5475 
1826 1 5477 5476 5478 
1827 1 5480 5479 5481 
1828 1 5483 5482 5484 
1829 1 5486 5485 5487 
1830 1 5489 5488 5490 
1831 1 5492 5491 5493 
1832 1 5495 5494 5496 
1833 1 5498 5497 5499 
1834 1 5501 5500 5502 
1835 1 5504 5503 5505 
1836 1 5507 5506 5508 
1837 1 5510 5509 5511 
1838 1 5513 5512 5514 
1839 1 5516 5515 5517 
1840 1 5519 5518 5520 
1841 1 5522 5521 5523 
1842 1 5525 5524 5526 
1843 1 5528 5527 5529 
1844 1 5531 5530 5532 
1845 1 5534 5533 5535 
1846 1 5537 5536 5538 
1847 1 5540 5539 5541 
1848 1 5543 5542 5544 
1849 1 5546 5545 5547 
1850 1 5549 5548 5550 
1851 1 5552 5551 5553 
1852 1 5555 5554 5556 
1853 1 5558 5557 5559 
1854 1 5561 5560 5562 
1855 1 5564 5563 5565 
1856 1 5567 5566 5568 
1857 1 5570 5569 5571 
1858 1 5573 5572 5574 
1859 1 5576 5575 5577 
1860 1 5579 5578 5580 
1861 1 5582 5581 5583 
1862 1 5585 5584 5586 
1863 1 5588 5587 5589 
1864 1 5591 5590 5592 
1865 1 5594 5593 5595 
1866 1 5597 5596 5598 
1867 1 5600 5599 5601 
1868 1 5603 5602 5604 
1869 1 5606 5605 5607 
1870 1 5609 5608 5610 
1871 1 5612 5611 5613 
1872 1 5615 5614 5616 
1873 1 5618 5617 5619 
1874 1 5621 5620 5622 
1875 1 5624 5623 5625 
1876 1 5627 5626 5628 
1877 1 5630 5629 5631 
1878 1 5633 5632 5634 
1879 1 5636 5635 5637 
1880 1 5639 5638 5640 
1881 1 5642 5641 5643 
1882 1 5645 5644 5646 
1883 1 5648 5647 5649 
1884 1 5651 5650 5652 
1885 1 5654 5653 5655 
1886 1 5657 5656 5658 
1887 1 5660 5659 5661 
1888 1 5663 5662 5664 
1889 1 5666 5665 5667 
1890 1 5669 5668 5670 
1891 1 5672 5671 5673 
1892 1 5675 5674 5676 
1893 1 5678 5677 5679 
1894 1 5681 5680 5682 
1895 1 5684 5683 5685 
1896 1 5687 5686 5688 
1897 1 5690 5689 5691 
1898 1 5693 5692 5694 
1899 1 5696 5695 5697 
1900 1 5699 5698 5700 
1901 1 5702 5701 5703 
1902 1 5705 5704 5706 
1903 1 5708 5707 5709 
1904 1 5711 5710 5712 
1905 1 5714 5713 5715 
1906 1 5717 5716 5718 
1907 1 5720 5719 5721 
1908 1 5723 5722 5724 
1909 1 5726 5725 5727 
1910 1 5729 5728 5730 
1911 1 5732 5731 5733 
1912 1 5735 5734 5736 
1913 1 5738 5737 5739 
1914 1 5741 5740 5742 
1915 1 5744 5743 5745 
1916 1 5747 5746 5748 
1917 1 5750 5749 5751 
1918 1 5753 5752 5754 
1919 1 5756 5755 5757 
1920 1 5759 5758 5760 
1921 1 5762 5761 5763 
1922 1 5765 5764 5766 
1923 1 5768 5767 5769 
1924 1 5771 5770 5772 
1925 1 5774 5773 5775 
1926 1 5777 5776 5778 
1927 1 5780 5779 5781 
1928 1 5783 5782 5784 
1929 1 5786 5785 5787 
1930 1 5789 5788 5790 
1931 1 5792 5791 5793 
1932 1 5795 5794 5796 
1933 1 5798 5797 5799 
1934 1 5801 5800 5802 
1935 1 5804 5803 5805 
1936 1 5807 5806 5808 
1937 1 5810 5809 5811 
1938 1 5813 5812 5814 
1939 1 5816 5815 5817 
1940 1 5819 5818 5820 
1941 1 5822 5821 5823 
1942 1 5825 5824 5826 
1943 1 5828 5827 5829 
1944 1 5831 5830 5832 
1945 1 5834 5833 5835 
1946 1 5837 5836 5838 
1947 1 5840 5839 5841 
1948 1 5843 5842 5844 
1949 1 5846 5845 5847 
1950 1 5849 5848 5850 
1951 1 5852 5851 5853 
1952 1 5855 5854 5856 
1953 1 5858 5857 5859 
1954 1 5861 5860 5862 
1955 1 5864 5863 5865 
1956 1 5867 5866 5868 
1957 1 5870 5869 5871 
1958 1 5873 5872 5874 
1959 1 5876 5875 5877 
1960 1 5879 5878 5880 
1961 1 5882 5881 5883 
1962 1 5885 5884 5886 
1963 1 5888 5887 5889 
1964 1 5891 5890 5892 
1965 1 5894 5893 5895 
1966 1 5897 5896 5898 
1967 1 5900 5899 5901 
1968 1 5903 5902 5904 
1969 1 5906 5905 5907 
1970 1 5909 5908 5910 
1971 1 5912 5911 5913 
1972 1 5915 5914 5916 
1973 1 5918 5917 5919 
1974 1 5921 5920 5922 
1975 1 5924 5923 5925 
1976 1 5927 5926 5928 
1977 1 5930 5929 5931 
1978 1 5933 5932 5934 
1979 1 5936 5935 5937 
1980 1 5939 5938 5940 
1981 1 5942 5941 5943 
1982 1 5945 5944 5946 
1983 1 5948 5947 5949 
1984 1 5951 5950 5952 
1985 1 5954 5953 5955 
1986 1 5957 5956 5958 
1987 1 5960 5959 5961 
1988 1 5963 5962 5964 
1989 1 5966 5965 5967 
1990 1 5969 5968 5970 
1991 1 5972 5971 5973 
1992 1 5975 5974 5976 
1993 1 5978 5977 5979 
1994 1 5981 5980 5982 
1995 1 5984 5983 5985 
1996 1 5987 5986 5988 
1997 1 5990 5989 5991 
1998 1 5993 5992 5994 
1999 1 5996 5995 5997 
2000 1 5999 5998 6000 
