LAMMPS data file via write_data, version 22 Jul 2025, timestep = 10000000, units = real

2400 atoms
2 atom types
1600 bonds
1 bond types
800 angles
1 angle types

2.9538655685893485 32.04613443141029 xlo xhi
2.9538655685893485 32.04613443141029 ylo yhi
2.9538655685893485 32.04613443141029 zlo zhi

Masses

1 15.9994
2 1.008

Pair Coeffs # lj/cut/tip4p/long

1 0.185199 3.1589
2 0 0

Bond Coeffs # harmonic

1 0 0.9572

Angle Coeffs # harmonic

1 0 104.52

Atoms # full

2099 700 2 0.527 4.0848123779505485 5.538468290406146 11.663502591252094 2 -8 0
2263 755 1 -1.054 12.012701601905935 13.53461252476437 13.23798101047507 1 5 -1
2011 671 1 -1.054 9.49534804137489 10.568944386496456 15.43930813781739 3 -2 -4
2177 726 2 0.527 11.047313868171607 16.03810637681337 6.966256803229512 5 1 2
1460 487 2 0.527 11.77071634489407 7.287477685275388 7.550181486514758 -3 1 6
411 137 2 0.527 7.522121921218796 13.061015873285722 10.60629339186065 -1 1 4
2172 724 2 0.527 12.802381425591841 7.801358459188831 17.36461528598945 -2 1 1
1959 653 2 0.527 11.811503217509932 8.105887328112962 4.006610999488314 -3 4 1
1066 356 1 -1.054 9.7744183614409 6.778214718780509 15.990469327753559 -2 0 9
1111 371 1 -1.054 11.792902925113054 10.849249648258018 16.961433142908263 -1 -2 0
2321 774 2 0.527 13.094978267556547 13.104867574411788 14.805344142512194 5 -3 -1
1902 634 2 0.527 14.201094841101384 8.547010290237859 4.574233335962237 1 3 -2
824 275 2 0.527 9.073975359119364 14.927123914617528 6.538335299397831 5 -2 -4
906 302 2 0.527 17.27097490785409 15.340520167661651 13.841065891479515 5 2 1
1940 647 2 0.527 10.328360402243352 17.30129344183488 16.094020807402877 -5 3 -2
1957 653 1 -1.054 11.014447316783505 7.587719226630721 3.8950985602312276 -3 4 1
763 255 1 -1.054 11.432018062480424 4.572053373066811 9.758241026245093 0 -2 -2
384 128 2 0.527 11.001610651711767 9.27478410218628 13.204625187238499 1 2 -5
2171 724 2 0.527 12.00573443996707 9.031308225995561 16.984520131461966 -2 1 1
39 13 2 0.527 7.2148468329656055 14.16054638261695 5.873706158628673 2 -2 4
2112 704 2 0.527 5.431409949050598 8.628874270420793 17.24974252781458 0 -4 0
1909 637 1 -1.054 15.338622713443746 11.255178761891953 16.91762510316579 -6 -2 -4
1636 546 1 -1.054 3.3052623621955965 8.008712558553059 6.213606973535306 -2 0 8
783 261 2 0.527 16.238847516803194 16.236893372059363 4.48368810592128 3 -2 5
1260 420 2 0.527 10.808233268873312 3.218244282431341 15.826090207966221 2 1 7
354 118 2 0.527 8.418397691146366 8.773839524004023 13.31078416706533 2 1 5
1802 601 2 0.527 9.82715345820409 15.025687882884375 4.216698872172438 -1 -4 -7
1977 659 2 0.527 11.346940661636404 15.68953204829541 10.044745840182587 -2 1 -1
605 202 2 0.527 4.447234021678246 12.933602414087472 13.838929582665008 3 1 -2
1585 529 1 -1.054 7.631181921347554 5.995077680545923 6.7584073962456435 -1 9 5
1459 487 1 -1.054 12.094100269170566 6.432311892775318 7.833635055447674 -3 1 6
528 176 2 0.527 9.663637510733434 5.513184781866285 9.20356448973859 0 -5 0
1363 455 1 -1.054 8.322573799104136 5.133954485048965 3.0637041775608025 2 -1 -3
232 78 1 -1.054 14.75383727901764 14.651048471950595 8.678477304172734 2 1 -5
594 198 2 0.527 12.191010717186007 13.15164283549957 10.282660559658916 -3 -9 6
2287 763 1 -1.054 4.995149081501832 3.801577759054856 3.1001501327056604 2 -2 4
12 4 2 0.527 7.907478872014039 5.440337665711319 10.55872603156069 5 -5 -5
526 176 1 -1.054 8.843110250809952 6.001531500070783 9.136607803491557 0 -5 0
1939 647 1 -1.054 10.017170505468817 16.794729815077552 15.34383059463185 -5 3 -2
638 213 2 0.527 11.85688534465902 13.730731886516581 3.66543719232288 1 2 0
234 78 2 0.527 13.958825236190329 14.20768509235105 8.974478299323945 2 1 -5
1766 589 2 0.527 17.186115325160774 8.852979463478409 4.37258926284171 4 -1 7
915 305 2 0.527 6.830429439646562 12.037679189251705 8.203037365003135 2 -2 -4
1173 391 2 0.527 12.629869455204465 3.229898628868512 12.879206639793603 0 2 -6
144 48 2 0.527 9.48009716016321 11.263652306556045 4.924042930551992 1 0 -1
1901 634 2 0.527 14.807842508497549 7.444794528437115 5.416178375793379 1 3 -2
1296 432 2 0.527 12.490008074638547 17.43902519764199 10.728677408826021 -4 -1 3
726 242 2 0.527 6.088839267206032 11.716513423776975 5.464735327575824 -1 1 0
1832 611 2 0.527 14.59838499749372 5.127623912765689 3.478940670503235 2 -2 0
1719 573 2 0.527 9.95493421876236 16.09947693492762 13.62762988223532 2 0 -1
2141 714 2 0.527 17.429347896018207 9.066997200358061 10.848979882920137 5 -3 -3
1910 637 2 0.527 16.00416865682602 10.884009104145841 16.338389908380517 -6 -2 -4
2254 752 1 -1.054 12.549173408949162 11.437166503370015 11.267664033035137 4 0 -2
2394 798 2 0.527 6.6981488571651635 16.20597263681426 8.968600281897002 3 0 4
2006 669 2 0.527 13.681778005476788 11.537049075956926 6.440936674646616 -1 0 2
142 48 1 -1.054 9.605301035568631 12.174550169960334 5.190164840345463 1 0 -1
37 13 1 -1.054 7.77712238751572 14.375241598604209 5.129405422728231 2 -2 4
449 150 2 0.527 15.071808099377508 11.08455345576966 4.281327795962377 4 -2 -10
1702 568 1 -1.054 5.241436969603689 14.604699119658052 6.787780774618278 4 0 -1
2288 763 2 0.527 4.637587518265934 4.522537230780258 3.6184155244152127 2 -2 4
146 49 2 0.527 4.6302514541057915 7.172192020587024 9.606564642953208 -6 6 0
1590 530 2 0.527 10.648928690859863 4.134958610739137 12.885861597231766 -5 2 0
1366 456 1 -1.054 14.538357582961254 8.92237132124339 8.049712664800722 1 1 0
1893 631 2 0.527 6.525109873938013 9.063404509176902 5.424493744953631 -1 6 -3
589 197 1 -1.054 10.129979081720105 7.382009694720089 13.179172138334993 2 1 -3
1638 546 2 0.527 3.641726755922546 8.747929419766209 5.7070678634900505 -2 0 8
391 131 1 -1.054 4.882495657218498 8.16578185445316 15.302441620422726 4 -1 6
1607 536 2 0.527 3.6910347634265435 12.02545214927826 6.16041235770292 -4 2 2
1551 517 2 0.527 16.396133293838858 6.74735938847774 15.551565397365682 3 1 -1
38 13 2 0.527 8.315755279056527 13.594233268746638 5.002393787789642 2 -2 4
421 141 1 -1.054 9.688453574561857 13.769361799919768 15.951984250298976 7 1 -2
2393 798 2 0.527 6.419985281875637 17.041658764134286 7.737280476498234 3 0 4
233 78 2 0.527 14.65906568091217 14.704186318744382 7.727463872938971 2 1 -5
585 195 2 0.527 13.78194094713818 13.759886945751742 5.543853255552458 1 -5 1
2255 752 2 0.527 11.978196656761883 11.02066991807854 11.913224267193494 4 0 -2
577 193 1 -1.054 17.00692168707653 10.388089169656888 8.08093001408512 -1 -8 5
553 185 1 -1.054 6.627261602903512 17.107599752795895 17.46625715441029 -3 0 4
1975 659 1 -1.054 11.042389423159138 16.52708426668245 10.394011369773049 -2 1 -1
249 83 2 0.527 6.883997175640711 4.105729661405788 16.434451846119938 7 2 1
1718 573 2 0.527 10.635517055996246 14.921732548882146 12.963085378568428 2 0 -1
224 75 2 0.527 5.404648030013285 3.3385728771655976 14.18648844920964 -3 1 -4
1965 655 2 0.527 6.176740298755736 13.929050476290277 9.577484205924234 -2 0 -1
450 150 2 0.527 16.172362250004255 10.995364314033296 5.31704835183745 4 -2 -10
540 180 2 0.527 11.737712220635169 9.851670753337242 6.869756688973059 3 -3 -4
1958 653 2 0.527 11.29339354753798 6.683830370820389 4.041404619974571 -3 4 1
2170 724 1 -1.054 12.112990715628118 8.10384982688894 16.773454532365246 -2 1 1
1044 348 2 0.527 6.0348111968875084 5.7897447904679105 15.38616819441495 0 -3 5
1154 385 2 0.527 14.47867461273222 8.348620761629046 15.765994265791825 5 2 4
1155 385 2 0.527 15.52648811892369 8.362700085400089 14.673390430524142 5 2 4
1678 560 1 -1.054 14.707620588197429 16.935940232352582 4.329064693187054 0 4 6
820 274 1 -1.054 12.321452434708702 8.4526788682538 10.31419007639769 1 -5 2
938 313 2 0.527 3.63763534397652 15.387651165340149 12.678554192545857 -7 3 3
1744 582 1 -1.054 13.832452257671228 6.506014499598859 11.782456139422111 -4 1 6
2189 730 2 0.527 17.314908325974688 4.670854881322492 13.477351731196201 -1 -4 4
1205 402 2 0.527 15.7116264322231 3.495517319794232 16.355087324475118 -5 1 -1
393 131 2 0.527 5.473058946699502 8.909382111049432 15.181922071033762 4 -1 6
1634 545 2 0.527 5.9940231894128475 17.477363939179106 12.534772282581327 6 5 -1
2142 714 2 0.527 16.299810303210254 8.423666493135043 10.072986802152545 5 -3 -3
1603 535 1 -1.054 15.371519888512244 15.43788364660174 16.368095829510573 -5 -1 -1
1153 385 1 -1.054 14.99545056836404 7.769998303645757 15.205307242592273 5 2 4
2219 740 2 0.527 15.228176905654708 15.349046372710315 12.778112188337614 -3 5 -1
1850 617 2 0.527 15.450883731473642 11.89785872733145 11.940838198371923 -7 1 1
1873 625 1 -1.054 6.07414185440802 10.750175407073055 15.291313138503405 -1 -4 -1
816 272 2 0.527 16.18611769813817 8.968014739599372 12.718720821669864 0 -2 -4
1637 546 2 0.527 3.7563710994007646 8.069622755784394 7.055641813854749 -2 0 8
1930 644 1 -1.054 6.421348512539697 9.698793191277828 10.308463344409116 5 -1 -1
2012 671 2 0.527 8.630293359879246 10.26353120977294 15.712502126839516 3 -2 -4
2140 714 1 -1.054 16.69106197333097 8.465469633693905 10.945572826194281 5 -3 -3
1604 535 2 0.527 14.82725251664925 14.88927106629496 15.803269543826758 -5 -1 -1
2252 751 2 0.527 17.43489105303089 4.050859140464235 9.38736695013236 -1 8 4
235 79 1 -1.054 9.307047183973685 8.606403561736325 9.54140956940288 3 -4 -2
1964 655 2 0.527 4.721093938660708 14.307190507760685 9.750686272658074 -2 0 -1
717 239 2 0.527 8.551651056150126 14.870484845630614 11.847051056815362 -8 3 -1
1745 582 2 0.527 14.390188639054466 6.597230731673466 11.009901501714385 -4 1 6
1978 660 1 -1.054 5.283508422582891 4.827601351219923 8.296452361498304 0 -1 3
79 27 1 -1.054 13.25533514048693 5.382561944025183 15.317545626822321 0 -2 1
604 202 1 -1.054 4.973316815397 13.436791031886093 13.217423632368513 3 1 -2
2036 679 2 0.527 5.849844242217609 16.262155443991553 14.597703336075767 -1 -2 5
1891 631 1 -1.054 7.371906423330504 8.95513320196139 5.8574426324072055 -1 6 -3
904 302 1 -1.054 16.87453583493926 16.211456520486436 13.864254439370544 5 2 1
1131 377 2 0.527 14.320131914026215 17.217235977535843 14.34195095712668 -4 5 1
1941 647 2 0.527 9.884187925000944 15.911865139466865 15.68893539444232 -5 3 -2
1931 644 2 0.527 7.246893775963322 10.042713788780388 9.967251689992487 5 -1 -1
1976 659 2 0.527 10.74255019002612 16.32293899643484 11.279817627856769 -2 1 -1
353 118 2 0.527 7.25185206097467 9.66414081253324 13.682846048170477 2 1 5
2320 774 1 -1.054 13.679083327410853 13.481300264606254 15.463638408884892 5 -3 -1
814 272 1 -1.054 16.281302395636565 9.458859601541732 13.534957646988675 0 -2 -4
2220 740 2 0.527 14.460022947730547 16.2288327264178 11.814883124999438 -3 5 -1
2322 774 2 0.527 14.041963635138126 12.724280451162409 15.923497674590385 5 -3 -1
10 4 1 -1.054 7.505197026223057 5.088406473906219 11.35279478224212 5 -5 -5
383 128 2 0.527 10.554826937562426 10.432843218842063 14.071329868575214 1 2 -5
2014 672 1 -1.054 9.832386581057282 12.757385519375456 8.332022547913242 -5 -1 -2
1831 611 1 -1.054 14.58105806351351 4.270883796146773 3.9054708261615025 2 -2 0
1171 391 1 -1.054 12.104300342526043 3.2232219750282702 13.679184334841006 0 2 -6
1367 456 2 0.527 15.366099160189085 9.383998940566892 7.91563977534076 1 1 0
2237 746 2 0.527 6.287811420087354 13.995949455071448 15.882956189136195 -8 11 0
913 305 1 -1.054 6.257709096358986 11.869081532418829 7.454840937225007 2 -2 -4
2019 673 2 0.527 4.838140507180947 6.294468638590052 3.460713321880328 3 0 3
423 141 2 0.527 9.720199245970509 13.927089704492232 16.895565565808827 7 1 -2
2015 672 2 0.527 9.880177911569236 13.617205447678813 7.914102358878621 -5 -1 -2
2249 750 2 0.527 4.614202085597249 12.178815500596487 11.269630721515393 1 -8 -3
2016 672 2 0.527 9.818396452965514 12.136827392181058 7.603363863013844 -5 -1 -2
392 131 2 0.527 5.139215986652517 7.542784573434463 14.622588254208932 4 -1 6
1172 391 2 0.527 12.471854637310106 3.92709853438412 14.213687309611496 0 2 -6
1703 568 2 0.527 4.2954233859791096 14.739005997052217 6.7307568440936585 4 0 -1
1101 367 2 0.527 9.813468270047796 9.039829991489734 3.7276830610156066 2 5 -5
1461 487 2 0.527 12.307999462232786 5.975020078282515 7.0203928982062385 -3 1 6
80 27 2 0.527 13.904611512631398 6.0825570759332726 15.385947474661261 0 -2 1
2236 746 1 -1.054 6.861252440432374 13.231441790241611 15.93703843619755 -8 11 0
725 242 2 0.527 6.287077860963948 12.640103944880694 4.28169819211791 -1 1 0
1279 427 1 -1.054 11.980241037785616 5.140285848351328 4.83351443968978 2 7 -3
1112 371 2 0.527 10.917717903383368 10.690482643366284 16.60777246874847 -1 -2 0
2256 752 2 0.527 12.910425898471038 10.709308644056716 10.761747992854103 4 0 -2
578 193 2 0.527 16.862113001149496 11.3334784907236 8.11967621058945 -1 -8 5
1588 530 1 -1.054 10.345719984478626 4.78310368955242 12.250091026005398 -5 2 0
1042 348 1 -1.054 6.075921043765932 5.776830590106162 14.429938730322805 0 -3 5
11 4 2 0.527 8.164204555145968 5.220255740017726 12.034378423957985 5 -5 -5
584 195 2 0.527 15.28970033205268 13.680508346711589 5.654545710191833 1 -5 1
846 282 2 0.527 5.370518466655774 3.1920495434020633 17.158852647661504 -2 2 -3
236 79 2 0.527 10.130289063083751 8.566589804429535 10.02815316481483 3 -4 -2
1849 617 1 -1.054 16.22304319680417 11.989528724874704 12.499047844052633 -7 1 1
1365 455 2 0.527 8.414156561712938 4.784179584806966 3.9499890361739367 2 -1 -3
2218 740 1 -1.054 14.422503697541819 15.383533947304576 12.262425198051973 -3 5 -1
2343 781 2 0.527 7.0292220454785435 3.4871860794115337 10.961808216977127 3 -6 -3
1765 589 1 -1.054 17.377960241991904 9.551452562165428 4.998338921733878 4 -1 7
1206 402 2 0.527 14.983015708070855 3.6674532810562956 15.039238158848804 -5 1 -1
2007 669 2 0.527 12.8732954222135 11.735198654420193 7.705447472473069 -1 0 2
2013 671 2 0.527 9.474407298541491 11.514160679289718 15.588838711805446 3 -2 -4
2250 750 2 0.527 5.015420937857439 10.996284825385516 10.413746081000198 1 -8 -3
2037 679 2 0.527 4.450204979407187 16.03156085659954 15.126599555307617 -1 -2 5
1801 601 1 -1.054 10.510472692526546 15.249418619653454 3.5848357045482064 -1 -4 -7
592 198 1 -1.054 11.963441633764624 13.858109443172228 9.67821945401265 -3 -9 6
2100 700 2 0.527 5.470644534938677 6.055565445977808 11.341051810974143 2 -8 0
554 185 2 0.527 6.1155327656167815 16.853462947918302 16.698285983445295 -3 0 4
409 137 1 -1.054 7.514848306302859 12.81353111258828 9.681669216162796 -1 1 4
448 150 1 -1.054 15.46770093716044 11.564967970123211 5.0084462976726725 4 -2 -10
1043 348 2 0.527 6.873952343397258 6.260813095596601 14.217480319875785 0 -3 5
2018 673 2 0.527 4.124676689267345 6.9647345676502175 4.615532692415747 3 0 3
1579 527 1 -1.054 13.68420207734879 17.439283050973724 16.700252979161217 3 5 0
422 141 2 0.527 10.605524211972368 13.680475518357847 15.692537832505822 7 1 -2
1895 632 2 0.527 2.962226737122917 11.187931564402202 14.031509839384453 3 5 -1
1746 582 2 0.527 14.40928334435372 6.705570967375471 12.519799068488666 -4 1 6
1894 632 1 -1.054 3.645114207673906 11.441495756760709 14.652478074868046 3 5 -1
1874 625 2 0.527 6.367235221531091 11.596920936516808 15.627988224748535 -1 -4 -1
1099 367 1 -1.054 9.153231244212646 9.694536538585218 3.95501149577668 2 5 -5
1068 356 2 0.527 10.563349405874176 7.2094912705073275 16.318827588226107 -2 0 9
145 49 1 -1.054 4.7291935010402195 7.913364981430144 9.008982217135054 -6 6 0
1932 644 2 0.527 6.635779234356847 9.389219490720876 11.188472065875478 5 -1 -1
397 133 1 -1.054 17.466218877367066 13.028625465650473 3.815954757452405 4 -1 -2
639 213 2 0.527 12.974134159745573 12.717401429477976 3.5357778115952483 1 2 0
765 255 2 0.527 12.224002851249182 4.129846871039785 10.063928990969943 0 -2 -2
591 197 2 0.527 9.961201870948925 7.0254978611569845 14.05132198756693 2 1 -3
1587 529 2 0.527 8.27084922034563 5.89212054390123 7.4630046287714675 -1 9 5
1633 545 1 -1.054 6.58624198873653 16.85702871214607 12.959852007273163 6 5 -1
1911 637 2 0.527 15.716896599805862 12.080942914171311 17.21970562673143 -6 -2 -4
715 239 1 -1.054 7.834570078529583 14.245277624679389 11.952608812114033 -8 3 -1
143 48 2 0.527 10.44258219057477 12.425613073916729 4.800089696005171 1 0 -1
1834 612 1 -1.054 14.677958816904917 4.514705790135613 7.074475872196329 -2 -1 -5
822 274 2 0.527 12.51133353584357 7.990203708300515 9.497922532064317 1 -5 2
1680 560 2 0.527 14.466480898758082 16.080301467902245 4.683981118402545 0 4 6
1892 631 2 0.527 8.011648007922028 8.994018730790815 5.146492763009699 -1 6 -3
81 27 2 0.527 12.411991014278541 5.829636607274059 15.389144388761839 0 -2 1
1259 420 2 0.527 9.791810152450607 3.8607465151761566 16.74585654088064 2 1 7
2035 679 1 -1.054 5.3660136976626065 15.801230129046646 15.283040996552563 -1 -2 5
825 275 2 0.527 8.661058521080516 15.818124830980015 7.690512417836193 5 -2 -4
821 274 2 0.527 12.555741499875271 7.830354749572653 11.002705206992909 1 -5 2
1586 529 2 0.527 7.491922874673419 6.940093633170184 6.696896984316194 -1 9 5
1704 568 2 0.527 5.431589472334277 14.631833279824187 7.725510604407542 4 0 -1
2264 755 2 0.527 12.138549371694964 12.70856452666227 12.771034935809931 1 5 -1
593 198 2 0.527 11.113590970377196 13.602584593902371 9.31948176276991 -3 -9 6
2265 755 2 0.527 12.816186754261667 14.028134119211861 13.073422294206853 1 5 -1
1067 356 2 0.527 9.986366869989252 5.844929555410159 16.00744935074726 -2 0 9
1679 560 2 0.527 14.356286679700302 16.93409663091896 3.438675563695902 0 4 6
2017 673 1 -1.054 4.086442244248351 6.1969250253414225 4.0452359083553935 3 0 3
2199 733 2 0.527 14.214536983687095 4.634803710606723 11.472185878444753 -5 2 2
82 28 1 -1.054 16.966684944423772 5.608604855049072 11.572635656025719 3 -8 -4
914 305 2 0.527 5.430755546085716 12.292412199389775 7.6854286109422665 2 -2 -4
737 246 2 0.527 16.920349090508175 15.226685176503064 17.06915922285916 2 2 0
335 112 2 0.527 4.088641265404431 12.067409409420915 3.3245850118126787 -2 -1 -6
1833 611 2 0.527 15.44333608892127 4.1880656536482075 4.31271680836024 2 -2 0
399 133 2 0.527 16.899894421032307 12.350981828026505 4.185153139742618 4 -1 -2
237 79 2 0.527 9.518261510548944 9.1066766228062 8.753153856915944 3 -4 -2
764 255 2 0.527 11.724568987549329 5.103801889906098 9.018045841748236 0 -2 -2
1589 530 2 0.527 10.699213187912994 4.481887099229986 11.413106608147183 -5 2 0
724 242 1 -1.054 5.654061194663725 12.039829924367748 4.675643333241975 -1 1 0
2238 746 2 0.527 7.7198900146101765 13.590803664168492 16.160269837726183 -8 11 0
539 180 2 0.527 10.507887361723851 9.300177637445781 6.180350439931651 3 -3 -4
1390 464 1 -1.054 14.452795948583477 17.475800220947388 8.089934517420591 0 -2 -1
2176 726 1 -1.054 11.862322764271736 16.52755393185846 6.854751701419822 5 1 2
823 275 1 -1.054 9.350162537567869 15.216925461240637 7.407799244184303 5 -2 -4
981 327 2 0.527 5.221456152539415 8.75457376681423 3.65374818559502 -4 -2 0
147 49 2 0.527 5.479794217108977 8.398940207173583 9.351103270004195 -6 6 0
979 327 1 -1.054 4.99823164372464 9.17133435237699 4.486042149261741 -4 -2 0
538 180 1 -1.054 11.062043629565009 9.178577364676931 6.951295322013717 3 -3 -4
2248 750 1 -1.054 4.366979447820149 11.69724032273331 10.480202276148043 1 -8 -3
606 202 2 0.527 5.797461646676675 13.598741318135861 13.676541169970085 3 1 -2
743 248 2 0.527 15.13906340569136 7.379177602567919 8.561817617722099 5 -4 -1
84 28 2 0.527 16.874095957654834 6.502384065539599 11.242760470633158 3 -8 -4
247 83 1 -1.054 6.318764464641653 4.757289461484154 16.849437978032366 7 2 1
1368 456 2 0.527 14.337337878019323 8.537447841247777 7.196684622065863 1 1 0
410 137 2 0.527 8.439226265315286 12.723406585684069 9.450077739589984 -1 1 4
716 239 2 0.527 7.062690663114961 14.789471877262182 12.10844297942556 -8 3 -1
1979 660 2 0.527 6.1385320430170855 5.223685874066716 8.12827559272651 0 -1 3
1717 573 1 -1.054 9.91318323811425 15.53992061532157 12.852139683493977 2 0 -1
527 176 2 0.527 9.104559260814435 6.920067276106941 9.201166288601149 0 -5 0
601 201 1 -1.054 17.30896294344826 13.151887869160744 8.772412738379533 -2 -5 3
2005 669 1 -1.054 12.990288606676335 12.079590749426995 6.8200445427722975 -1 0 2
1851 617 2 0.527 16.336257179703445 11.125816390125031 12.895803761093587 -7 1 1
815 272 2 0.527 17.22695681094665 9.516167758737227 13.67165134465891 0 -2 -4
1835 612 2 0.527 15.552521268236484 4.1256435958865225 7.0760959568616855 -2 -1 -5
742 248 1 -1.054 15.397624050417237 6.526201899499786 8.910831137354153 5 -4 -1
1605 535 2 0.527 16.036301005362777 15.800127099021484 15.782367917421997 -5 -1 -1
637 213 1 -1.054 12.137188871785439 12.869334538938592 3.974720571263331 1 2 0
2392 798 1 -1.054 7.132717434870997 16.72690972438363 8.293317949673765 3 0 4
1900 634 1 -1.054 14.18144339642127 8.167644760698225 5.452827057678762 1 3 -2
1980 660 2 0.527 5.078125377577118 5.0739264494152945 9.198324630420075 0 -1 3
781 261 1 -1.054 17.09241063504651 15.812170357593017 4.568965494673972 3 -2 5
2190 730 2 0.527 17.127778536825964 4.19664504972229 14.902834943404871 -1 -4 4
583 195 1 -1.054 14.556775947230161 14.292251031181289 5.723992711159976 1 -5 1
1836 612 2 0.527 14.102695883136859 3.8132943296588606 7.379969134659848 -2 -1 -5
382 128 1 -1.054 11.05224837138186 10.22769274666324 13.279675898087467 1 2 -5
2098 700 1 -1.054 4.623649112231127 5.859639209401002 10.94049787108772 2 -8 0
590 197 2 0.527 10.362218170537695 6.619589010014873 12.649067063483612 2 1 -3
1280 427 2 0.527 11.510030975675598 4.448430058828507 5.29877704511484 2 7 -3
1803 601 2 0.527 10.83165306794409 16.104395138832963 3.871349503303249 -1 -4 -7
1281 427 2 0.527 12.838740517783892 4.761597429457472 4.644291749765443 2 7 -3
693 231 2 0.527 5.1151133316856185 3.176927214880352 6.443608751659398 3 2 -8
744 248 2 0.527 14.941366450385845 5.892204035984634 8.35756137886383 5 -4 -1
1392 464 2 0.527 14.695962627693826 16.594298786383067 8.37287803041527 0 -2 -1
2197 733 1 -1.054 13.714322930378927 3.8214365235967334 11.405469522246149 -5 2 2
2198 733 2 0.527 14.35059471742579 3.1723222694388 11.10540174340405 -5 2 2
1875 625 2 0.527 5.191194836652048 10.915885187559576 14.960894218118796 -1 -4 -1
1258 420 1 -1.054 10.449930998028343 4.068034504653002 16.08242573613449 2 1 7
75 25 2 0.527 3.1574192342723584 8.447650406745286 9.968452798671509 -6 0 4
1963 655 1 -1.054 5.567513163137985 14.660442838166919 9.476790098904205 -2 0 -1
2244 748 2 0.527 3.0465021533552092 16.08106944427536 9.69998431401798 5 -1 -1
1684 562 1 -1.054 16.85204352184816 2.992519936914031 5.350435934608906 -1 -2 4
1204 402 1 -1.054 15.65517211815444 3.138386020432039 15.468802182560687 -5 1 -1
1606 536 1 -1.054 3.0671688729987614 11.299619605896092 6.174185424497384 -4 2 2
1581 527 2 0.527 14.327240557183263 16.737130361742395 16.60168924192178 3 5 0
905 302 2 0.527 17.02181813474563 16.565604581215887 12.987260192514926 5 2 1
980 327 2 0.527 4.873215385768422 10.09452900962923 4.266237632846605 -4 -2 0
352 118 1 -1.054 7.464901057688221 8.835532628250377 13.253602262432098 2 1 5
217 73 1 -1.054 13.86917139848382 9.762701572162353 3.094981514826939 1 -7 -3
603 201 2 0.527 16.502749314669128 13.2584010988554 9.277294694490992 -2 -5 3
1549 517 1 -1.054 17.26423582273456 6.521983172546144 15.885982872617507 3 1 -1
2058 686 2 0.527 4.405685108531758 3.193449569883826 8.878238455945224 -1 2 -6
1391 464 2 0.527 13.566215352408886 17.38014916946686 7.742001323712852 0 -2 -1
1983 661 2 0.527 8.667649985712679 6.986526997673608 17.418919350833846 5 2 -2
1100 367 2 0.527 8.655191498350083 9.823435785105652 3.1478106323349304 2 5 -5
444 148 2 0.527 7.548537336230112 16.751888640822504 3.1950262990907183 4 -3 2
939 313 2 0.527 3.240417424791378 16.53329476680869 11.772125072587198 -7 3 3
648 216 2 0.527 3.021302021861197 8.384171782596066 15.046283231596385 -4 -1 1
398 133 2 0.527 17.099112146546474 13.851042203627314 4.140138542984084 4 -1 -2
1896 632 2 0.527 3.178609388336601 11.911962236716569 15.343322776889684 3 5 -1
83 28 2 0.527 17.163955796636618 5.0853097097708275 10.795797137169046 3 -8 -4
2031 677 2 0.527 17.48904399950594 8.487615926625963 16.32866543746826 -1 7 -7
2178 726 2 0.527 11.60900226690504 17.30552875399127 6.357946227227692 5 1 2
692 231 2 0.527 5.356105418713179 3.244437848265536 4.950538041377735 3 2 -8
2243 748 2 0.527 3.7473389734822615 17.42295759251477 9.692411085971774 5 -1 -1
1635 545 2 0.527 7.373929103573735 17.367418359726614 13.147687796447057 6 5 -1
1913 638 2 0.527 17.432463895196026 6.493166279060486 4.052042925557152 -8 0 0
602 201 2 0.527 17.1891637289344 13.714604825776256 8.00740982278375 -2 -5 3
2073 691 2 0.527 17.454103719797015 13.511532411384115 13.319419322789196 -1 7 -4
937 313 1 -1.054 2.9871811366905376 16.082614865599485 12.577724740646321 -7 3 3
1827 609 2 0.527 3.0445464983270014 4.510803331997834 15.274102903796908 0 3 4
1428 476 2 0.527 2.991879436370219 13.008321382088186 12.763951603567167 -4 -4 -1
636 212 2 0.527 15.40990734722883 13.88659189895498 28.501806013308776 1 -1 -5
1728 576 2 0.527 13.378334979864867 4.030815541027517 19.621667064592323 -2 2 3
1174 392 1 -1.054 14.651666338526587 7.327740559209267 25.060344485111266 -1 3 4
1982 661 2 0.527 7.4233389430134675 7.560240303699693 18.062687777325596 5 2 -2
831 277 2 0.527 16.884418655949432 17.045627386843655 27.86497108213845 2 -2 1
1508 503 2 0.527 11.20176601874051 10.228517931642756 19.598323953172617 3 -1 1
853 285 1 -1.054 4.914909478717742 15.240787060980551 30.903547941543106 4 0 1
1574 525 2 0.527 16.61786895172035 9.1526247380592 27.862145049416696 4 -2 0
709 237 1 -1.054 6.646367337632065 8.256420412760201 26.711534914914974 -3 3 0
141 47 2 0.527 13.555907493482168 11.560120318857088 28.30552287137408 1 2 2
1064 355 2 0.527 14.417875371765087 4.1016876850094395 26.72228651470243 5 3 0
355 119 1 -1.054 15.825297432646291 4.1497380453373856 18.104242537557003 -4 -2 0
634 212 1 -1.054 14.745438018142995 13.219491926959492 28.329498232866516 1 -1 -5
351 117 2 0.527 6.072347816010689 14.95006427340997 26.302148343670844 -2 7 7
428 143 2 0.527 14.556546355980005 13.985712435831413 31.19803975045899 -1 9 -4
2167 723 1 -1.054 4.4143847210634295 17.188052938620352 23.924487162949347 -9 -3 1
129 43 2 0.527 10.409713920034054 10.543970545225621 30.627215269617338 -1 3 6
465 155 2 0.527 6.082379954594065 8.256427505651635 28.590662704041662 -3 -5 -2
1773 591 2 0.527 9.536772401413764 10.704292122107306 23.919715490962055 -1 4 2
463 155 1 -1.054 5.543345356343635 8.516577759162086 29.337653522459366 -3 -5 -2
140 47 2 0.527 12.607971518458164 10.612166666277226 27.602176407661773 1 2 2
747 249 2 0.527 9.473896145286927 15.086265264630914 18.950165422372116 5 -6 -6
1423 475 1 -1.054 8.852869403130407 4.166927543544764 18.49706681564962 -4 6 2
2107 703 1 -1.054 3.6499744867598922 14.599900405640808 27.64697309358533 2 0 -3
803 268 2 0.527 6.943356371060843 13.706487273365942 31.005458212276025 0 5 -4
1785 595 2 0.527 9.153939572723411 12.595022614723069 27.437857414481186 0 0 -7
36 12 2 0.527 16.34462191568143 12.77599538100449 20.872267371121055 1 2 -5
1757 586 2 0.527 3.8524317158549004 6.357800274199756 22.99288472956304 2 -1 5
1170 390 2 0.527 10.830547225081478 16.330256805565696 23.031262504201923 0 7 2
1424 475 2 0.527 8.702909649534428 4.980498411380392 18.978571078755415 -4 6 2
1908 636 2 0.527 13.867442781032567 16.043334144004756 30.090833487907734 1 1 -1
722 241 2 0.527 16.900961124897314 8.611684619231148 23.3110417169749 -1 2 2
2084 695 2 0.527 4.164249348578158 13.58955664404415 21.17309860408238 4 4 0
435 145 2 0.527 6.888065092079161 4.545242647355937 29.258539616749463 0 1 -4
1562 521 2 0.527 2.99900493990511 4.306081961867812 21.4153536334557 6 -2 3
851 284 2 0.527 6.014238623262562 7.309853200143552 20.718827502606615 2 -8 -5
417 139 2 0.527 10.592579290755724 7.2134211947004445 22.74747024733799 -3 2 -1
327 109 2 0.527 4.418416115524979 6.3841240104957055 26.48714507430962 -1 1 3
1990 664 1 -1.054 17.15000014435863 14.394153113366247 27.798219520188308 -2 1 0
2111 704 2 0.527 6.113865393020197 9.550591400924223 18.23796666584861 0 -4 0
2108 703 2 0.527 3.179292424756264 15.427387048612298 27.54719305995418 2 0 -3
880 294 1 -1.054 10.337950497799001 12.225559922671481 23.581026894233435 -5 1 -2
804 268 2 0.527 5.619259332695691 12.992695485663768 30.834687756395493 0 5 -4
1756 586 1 -1.054 3.8264348976874074 7.231095505547037 23.38392346798637 2 -1 5
834 278 2 0.527 9.115931493456888 17.144130898067303 20.9282236072915 0 -7 -7
1168 390 1 -1.054 11.54448132849708 16.197493958885243 22.407641390848962 0 7 2
2083 695 1 -1.054 4.197212401425504 12.812152572348698 20.61561489268216 4 4 0
201 67 2 0.527 13.397706387943366 14.861447176229872 17.897499099783776 6 2 1
1854 618 2 0.527 6.946866435534006 14.893456674978662 21.856361856098783 -2 -1 -7
1483 495 1 -1.054 6.854304913732259 4.107916378268569 25.977050615689276 0 4 4
1654 552 1 -1.054 9.56917512633828 15.339639715869486 30.051062138832155 -3 1 3
778 260 1 -1.054 12.062701166085748 13.632523515508556 21.203356600057134 2 -2 -3
1750 584 1 -1.054 6.169479564780669 16.044638529596913 20.805343316172134 -4 1 0
1507 503 1 -1.054 11.474944135376822 11.138638754868207 19.7135868937077 3 -1 1
2270 757 2 0.527 10.066685659785474 7.1443233791649385 26.682394697641122 1 4 -4
1425 475 2 0.527 8.975353415347163 3.5046200614086134 19.177197826457455 -4 6 2
486 162 2 0.527 14.383477731997038 6.923333906579387 19.0801740873053 1 0 -4
1262 421 2 0.527 13.96964690504842 7.03985363088407 21.25121945998512 -4 2 -6
434 145 2 0.527 5.916608127168024 4.549392947914369 30.41963779704305 0 1 -4
621 207 2 0.527 11.75063154005223 7.892988603880746 19.842766817582344 1 -3 1
2135 712 2 0.527 15.32318676810368 8.405472186162568 26.74187425862104 -4 -4 -2
321 107 2 0.527 10.291316200948291 4.646655124934651 21.868508057088956 1 -3 3
1906 636 1 -1.054 14.747556357339398 15.851128793248298 30.41438990946558 1 1 -1
406 136 1 -1.054 9.208893954945271 7.680847437000322 28.1364329983614 6 -5 -7
1263 421 2 0.527 13.593729867023766 5.700750715237041 20.65340378464291 -4 2 -6
2109 703 2 0.527 3.2030504825403887 14.15490405218881 28.36702091211078 2 0 -3
542 181 2 0.527 4.1449862263090615 14.787172843740933 25.82685556071359 -1 2 0
483 161 2 0.527 12.004728629364651 5.754588874986959 28.45612275889368 -6 -1 -1
67 23 1 -1.054 15.449045915058893 5.72802168241441 30.65656585306078 -1 5 -3
2110 704 1 -1.054 5.809462773094486 8.649664070513644 18.128875916396932 0 -4 0
2180 727 2 0.527 6.764416369525443 16.9251345212447 26.593333430685465 -9 -1 -1
113 38 2 0.527 12.668191480177429 3.612869611606441 23.476940765378693 1 5 -4
284 95 2 0.527 3.372005659813468 17.096516375447575 20.808554327317175 -3 1 -6
1793 598 2 0.527 7.52808688385127 5.7463587480459495 25.162719282515848 3 3 0
65 22 2 0.527 4.767374458680793 10.49064037020672 23.464807853831974 6 -4 2
139 47 1 -1.054 13.024264910321847 10.77702910262088 28.448197662298362 1 2 2
1113 371 2 0.527 11.644742164952111 11.058600279925074 17.883632965230916 -1 -2 0
1261 421 1 -1.054 13.380143269081142 6.633074398317714 20.616201514482253 -4 2 -6
349 117 1 -1.054 6.98101454599316 15.1592445911136 26.5184813756455 -2 7 7
652 218 1 -1.054 13.876979446104917 15.653281090749688 23.946279898511246 1 4 0
334 112 1 -1.054 3.889218401154178 11.700087470050345 31.55572858786312 -2 -1 -7
723 241 2 0.527 17.187802301997063 7.324182446152317 22.568104761541843 -1 2 2
1120 374 1 -1.054 17.27269538226995 10.481000842905035 23.056948982257655 -1 -5 2
170 57 2 0.527 7.0053987464718075 12.038892523144197 27.304044902503954 -1 -3 0
248 83 2 0.527 6.7781119391284435 4.995429102101315 17.65474602290507 7 2 1
246 82 2 0.527 16.007860904462415 10.025955743654844 19.363774621692208 4 12 3
1752 584 2 0.527 6.186372381226699 15.44230223793212 20.061611325334038 -4 1 0
777 259 2 0.527 12.707935845380254 10.229743106795796 24.970084084484203 5 1 0
854 285 2 0.527 5.062973588251951 15.250852522752341 29.957922503306033 4 0 1
89 30 2 0.527 15.560550592180611 13.777208401043646 19.190235064001158 -2 1 -5
950 317 2 0.527 10.313308539384472 4.638511121504757 26.005129402990825 0 0 4
625 209 1 -1.054 13.77433338446877 10.85567339733973 21.281766523000954 -3 3 -8
485 162 2 0.527 15.23812263724158 7.971599345392208 18.400015174341505 1 0 -4
949 317 1 -1.054 10.385866598489303 3.8382360530619786 25.485007926609853 0 0 4
407 136 2 0.527 8.920887092036338 8.589732147425526 28.221357349136223 6 -5 -7
482 161 2 0.527 13.139138581191407 4.8163736621085045 28.8093382005165 -6 -1 -1
645 215 2 0.527 17.388575946488668 3.7965656129291476 25.108467911147724 4 0 -3
1065 355 2 0.527 15.050222574453594 5.475570282138807 26.655363147702797 5 3 0
1485 495 2 0.527 6.985778647092784 3.3735354276525644 25.377358233216764 0 4 4
2047 683 1 -1.054 6.081445920670799 11.612181545638144 18.633469319130192 -2 1 -2
1726 576 1 -1.054 14.152513330410201 4.09983105040917 20.1803410281072 -2 2 3
1792 598 1 -1.054 7.84958962689652 6.601883971952609 24.878212924924522 3 3 0
710 237 2 0.527 6.748595105286424 9.189770329781823 26.525419586498717 -3 3 0
35 12 2 0.527 16.768029687204805 13.101700005746071 22.288790305654356 1 2 -5
1350 450 2 0.527 16.300991884573307 11.237848189183309 25.980077117418194 -8 -1 11
833 278 2 0.527 10.249908480605551 16.804256283765092 19.984573084348416 0 -7 -7
325 109 1 -1.054 4.028039944748155 7.191190869963097 26.15176278020674 -1 1 3
2286 762 2 0.527 6.433389003824437 7.588028383184041 30.95659274782101 0 0 6
1886 629 2 0.527 12.103040138737303 17.04682152686425 26.08962450241448 4 -2 1
1656 552 2 0.527 9.724443865123114 15.183710841740828 30.982624954389784 -3 1 3
881 294 2 0.527 10.150779248407646 13.04132644865114 24.045487581407464 -5 1 -2
2347 783 1 -1.054 3.130701894384271 9.00113100305243 28.089092092576877 -6 3 2
2349 783 2 0.527 3.3677216225267506 8.40422614779911 27.37933316954776 -6 3 2
2269 757 1 -1.054 10.43003989295544 6.780270283719152 25.875133416959116 1 4 -4
667 223 1 -1.054 6.156698057717172 10.266820457680721 21.16011419431432 2 0 10
128 43 2 0.527 11.767785616955615 10.43272833537271 29.96754785120201 -1 3 6
668 223 2 0.527 5.703417690610068 10.940910457612773 21.666445220372065 2 0 10
779 260 2 0.527 11.67765885123517 13.213145488775792 20.43387869660664 2 -2 -3
1798 600 1 -1.054 13.763025129865595 3.0341485483123845 28.936184967361758 3 0 2
26 9 2 0.527 12.049747400020587 17.27076516801396 28.81044920277435 6 -1 1
1924 642 1 -1.054 15.364996816378033 16.321969207364635 21.56258502670772 -1 0 0
565 189 1 -1.054 11.916648907555894 17.285646257991395 19.23914022067178 2 2 0
746 249 2 0.527 9.072658093720493 13.706804547702692 19.427649749651763 5 -6 -6
1925 642 2 0.527 15.888817834801037 17.121083471859688 21.619678559880235 -1 0 0
1898 633 2 0.527 6.762286163968423 12.250565879413875 23.94952122046774 -8 0 -3
1176 392 2 0.527 15.397145507608407 7.402852433470188 24.4646511039647 -1 3 4
1995 665 2 0.527 8.613843701955846 14.893018911260437 23.809957865674416 3 0 -2
408 136 2 0.527 9.784613801096418 7.540300873978422 28.88811391818239 6 -5 -7
1122 374 2 0.527 16.874370356787907 11.232957756729258 22.618622919890825 -1 -5 2
1566 522 2 0.527 3.7951189260891245 13.528439095330553 23.78254628547183 5 2 5
1149 383 2 0.527 11.900344921139421 3.1276595350140473 17.772139968080776 -1 4 2
424 142 1 -1.054 13.815415079834144 12.744777672770436 23.83060201238253 6 -4 4
2134 712 1 -1.054 14.996710524597459 8.457060414068035 27.640196995309793 -4 -4 -2
705 235 2 0.527 8.240022506470599 4.675750367772635 27.26642032491519 9 2 3
427 143 1 -1.054 14.268524384588908 13.074971708841204 31.25989821801473 -1 9 -4
850 284 1 -1.054 5.154816087061393 7.101914044222585 20.352240539051632 2 -8 -5
706 236 1 -1.054 10.04344670836244 11.090369636831527 26.888239293529523 -3 0 -1
857 286 2 0.527 16.550734335425574 7.144859866145411 31.11622421716954 4 1 -2
413 138 2 0.527 9.824092237786553 11.943635570970304 20.355342292563595 0 6 -1
326 109 2 0.527 3.988394067986783 7.0628118352996285 25.204039886988973 -1 1 3
951 317 2 0.527 11.273415588092082 3.521987490303579 25.65375463884371 0 0 4
1211 404 2 0.527 10.976285621777746 7.694681430863022 30.83000090776205 0 -1 -2
375 125 2 0.527 5.601743895893795 4.090203800855277 21.59130357573047 -1 6 0
620 207 2 0.527 10.36915582611354 7.962273075754127 19.227446042977267 1 -3 1
433 145 1 -1.054 5.958886138188639 4.6406169411605 29.46773313859358 0 1 -4
615 205 2 0.527 6.278495395876092 15.411047885645361 18.30316072961167 1 2 -3
2284 762 1 -1.054 6.2487845211113475 7.128026680135959 31.775464671776135 0 0 6
90 30 2 0.527 17.024031274368628 14.037660569966418 18.90338385214593 -2 1 -5
1526 509 2 0.527 13.65124410185804 15.358061432983622 25.722950626328515 0 -1 -4
543 181 2 0.527 4.737481025379626 15.630526582580426 24.717982531977363 -1 2 0
1210 404 1 -1.054 10.888170100321512 7.00065058622631 30.1767106302237 0 -1 -2
374 125 2 0.527 7.066066820722509 4.427304900455904 21.406869902723066 -1 6 0
267 89 2 0.527 4.8405171251610914 4.260005299698511 27.971825258644138 9 -2 2
1787 596 2 0.527 17.116385686413853 12.010005370377447 30.066981831792113 0 1 7
429 143 2 0.527 14.167958564178502 12.792797814046578 30.350779825737902 -1 9 -4
1771 591 1 -1.054 8.935817279349518 10.077284291404526 24.322139780440047 -1 4 2
1758 586 2 0.527 4.221780063207548 7.8012053807656585 22.72444743582216 2 -1 5
1629 543 2 0.527 7.400930092441069 11.207646561636572 30.857132642727077 -8 -3 2
829 277 1 -1.054 15.99214354854053 17.205292886206333 27.55742673564436 2 -2 1
780 260 2 0.527 12.647417245793605 14.300442985298666 20.845275361386896 2 -2 -3
412 138 1 -1.054 9.059989940357095 12.309881524228722 20.80058731957829 0 6 -1
1373 458 2 0.527 17.161170248852166 5.298223098213565 20.15245441265176 -1 2 0
2136 712 2 0.527 14.046863579742336 8.37434430376069 27.555461698263592 -4 -4 -2
703 235 1 -1.054 8.769257160933101 4.983874201289293 28.002084774750358 9 2 3
171 57 2 0.527 6.584004720825468 11.409918891109342 25.99304748229409 -1 -3 0
1169 390 2 0.527 11.155643197139085 15.676549690877943 21.70503676095427 0 7 2
1348 450 1 -1.054 15.668542189882707 11.953748685710863 26.0411129748802 -8 -1 11
340 114 1 -1.054 9.998143648978921 2.9663156660287204 21.176669240077103 0 3 -1
1472 491 2 0.527 13.514756449833635 9.892056678441701 22.8990770698713 1 5 -2
2331 777 2 0.527 7.343699726909593 6.494098164695364 22.91401765246874 4 -6 -6
619 207 1 -1.054 11.039236982940473 8.502510257571673 19.64621419180535 1 -3 1
298 100 1 -1.054 10.486663429245555 4.177930793630521 30.48028918703814 -5 -1 -2
69 23 2 0.527 14.615187091775024 5.6543757164343695 30.192360418464407 -1 5 -3
1857 619 2 0.527 8.964428990968392 16.792654863457308 24.842115897227874 3 1 2
299 100 2 0.527 10.263969250850247 3.247057284309875 30.46963620145121 -5 -1 -2
464 155 2 0.527 4.822308675933142 9.013919530781113 28.951662623763337 -3 -5 -2
1794 598 2 0.527 7.678597436471141 7.181508211166387 25.620526364105064 3 3 0
776 259 2 0.527 12.907725683396832 11.726960304537023 25.07167045852326 5 1 0
855 285 2 0.527 5.557912531101595 15.857359013919313 31.253715488143676 4 0 1
357 119 2 0.527 15.164425321153189 4.192157077736962 18.79538675348848 -4 -2 0
1473 491 2 0.527 12.472873112510003 8.815853697050205 23.118533705298272 1 5 -2
832 278 1 -1.054 9.34826333886318 16.566716963679035 20.20100509589767 0 -7 -7
373 125 1 -1.054 6.440678894801556 3.7060636276737204 21.336635958695737 -1 6 0
2048 683 2 0.527 6.204805123983418 12.527649051852912 18.382603922800477 -2 1 -2
30 10 2 0.527 11.956339232214102 6.184736404069061 24.77933662184912 2 4 -2
959 320 2 0.527 15.16422268946666 11.051145934459734 29.3727345406355 -2 3 -2
626 209 2 0.527 14.482973863613925 11.47498289114483 21.45645535494386 -3 3 -8
852 284 2 0.527 5.070910434553325 7.680344928007968 19.594210700864487 2 -8 -5
244 82 1 -1.054 15.125578427390744 9.744956121015731 19.12118713369694 4 12 3
266 89 2 0.527 3.432372817024517 4.244884931752583 27.41613114040844 9 -2 2
711 237 2 0.527 5.752579859008624 8.053195458459678 26.435718003779883 -3 3 0
1627 543 1 -1.054 7.616984294110525 10.280068077178706 30.76147437951416 -8 -3 2
319 107 1 -1.054 10.446862513594654 5.44473008672561 22.373595719095846 1 -3 3
200 67 2 0.527 13.745268718651047 15.529809733612113 19.21065829865251 6 2 1
66 22 2 0.527 3.493390662878105 11.190525614885994 23.041699140705035 6 -4 2
25 9 1 -1.054 12.037566050571218 16.322826946384314 28.94272263786209 6 -1 1
415 139 1 -1.054 10.702199969835819 8.16197668276455 22.680705848709398 -3 2 -1
1564 522 1 -1.054 3.132234262623317 13.13405654978491 23.215732868154863 5 2 5
1951 651 1 -1.054 5.3335045896539315 17.3147421005632 28.787890237858026 1 2 6
1853 618 2 0.527 7.983776359796918 13.810009089659026 22.063370665680047 -2 -1 -7
745 249 1 -1.054 9.353185727810237 14.186065218219323 18.64800541155877 5 -6 -6
1655 552 2 0.527 10.440139877552403 15.493597237741607 29.685071757123836 -3 1 3
1471 491 1 -1.054 13.244318012050526 9.215695911835438 23.520069026579737 1 5 -2
2330 777 2 0.527 8.473342334755813 6.49933232531869 21.90616124822864 4 -6 -6
350 117 2 0.527 7.253671573610485 14.45936991668825 27.11183229469659 -2 7 7
2271 757 2 0.527 9.761856166833644 6.953080252750438 25.211884627882327 1 4 -4
1349 450 2 0.527 15.131000200119717 11.86686069926991 25.25388317586487 -8 -1 11
721 241 1 -1.054 16.72180519555677 7.671564692316634 23.328633568512227 -1 2 2
1212 404 2 0.527 11.035306197758853 6.190905259775567 30.665479212435972 0 -1 -2
426 142 2 0.527 13.549535595484313 13.621139359339471 24.109044007952374 6 -4 4
1525 509 1 -1.054 13.493132358477961 15.360699407323786 26.6669978773198 0 -1 -4
635 212 2 0.527 14.977883826764426 12.86531898315482 27.47114975863263 1 -1 -5
1784 595 2 0.527 9.236901872257139 13.566135139913023 28.59628394346966 0 0 -7
960 320 2 0.527 15.16847949444609 9.544787905972804 29.221862570895954 -2 3 -2
443 148 2 0.527 8.115189792444339 16.31041338306193 30.95466684116584 4 -3 1
64 22 1 -1.054 3.906379749120098 10.32783320829327 23.079562853949973 6 -4 2
1063 355 1 -1.054 15.231029126714374 4.550215149953074 26.490261075815592 5 3 0
704 235 2 0.527 8.562593279090361 5.9158281745160375 28.072676903806638 9 2 3
1484 495 2 0.527 6.00089080320927 3.9411789590285955 26.377194101398736 0 4 4
68 23 2 0.527 16.099687359872167 5.403092160835978 30.034216889324025 -1 5 -3
1436 479 2 0.527 16.23549757948584 3.2160225044306983 27.570667811720366 2 2 -6
1783 595 1 -1.054 8.705878491628315 13.343649245262862 27.83159736207175 0 0 -7
481 161 1 -1.054 12.925686792675224 5.575348487277462 28.26654241778611 -6 -1 -1
1994 665 2 0.527 8.41640856786491 14.996670508397665 25.307345512421396 3 0 -2
1727 576 2 0.527 14.377302001875396 3.193782812881705 20.391950305538625 -2 2 3
1751 584 2 0.527 6.791349871392143 16.733385647585656 20.57053198025428 -4 1 0
336 112 2 0.527 4.612256355484122 11.09849923300773 31.378136212171245 -2 -1 -7
708 236 2 0.527 9.450507306450076 10.435338117463035 26.520016077799347 -3 0 -1
1926 642 2 0.527 15.9824139086228 15.650517449391527 21.27244670580042 -1 0 0
1563 521 2 0.527 3.9176893332376324 5.375282985846502 20.86333624041813 6 -2 3
34 12 1 -1.054 16.111492199169156 12.618410574728172 21.787171347800992 1 2 -5
425 142 2 0.527 13.751519660707014 12.766636796760377 22.87578730314741 6 -4 4
802 268 1 -1.054 6.543571126536211 12.837084866902627 31.028760701430716 0 5 -4
442 148 1 -1.054 7.290782362879889 16.512603529333283 31.397050104814426 4 -3 1
775 259 1 -1.054 12.717975654374118 10.951103725508311 25.59918654830525 5 1 0
958 320 1 -1.054 15.575300856390818 10.257300038002406 29.71486789875083 -2 3 -2
1148 383 2 0.527 11.034740026452138 3.915180600086394 18.732574207076542 -1 4 2
29 10 2 0.527 13.430424831392708 5.881829750646229 24.614371078111624 2 4 -2
613 205 1 -1.054 5.932414572790919 14.580893025355474 18.630731312761633 1 2 -3
654 218 2 0.527 14.621960711488308 15.59751132132236 23.347844947915995 1 4 0
669 223 2 0.527 6.572050034851488 10.744604902806255 20.442175437809833 2 0 10
127 43 1 -1.054 11.249540146350036 10.089827526648104 30.69560851421541 -1 3 6
1561 521 1 -1.054 3.739354915618619 4.864372958188734 21.652892796170068 6 -2 3
1899 633 2 0.527 7.178687099371297 10.810713177556343 24.162427184059833 -8 0 -3
627 209 2 0.527 14.078869915455831 10.34855757020528 20.52922269511727 -3 3 -8
1897 633 1 -1.054 6.425360542479796 11.397948480915439 24.224760062656838 -8 0 -3
28 10 1 -1.054 12.564502903607353 5.62252463754545 24.299455403979845 2 4 -2
1509 503 2 0.527 12.213553205157059 11.09245716339962 20.320674816049785 3 -1 1
199 67 1 -1.054 13.527989059517388 14.67966240544541 18.82820450145508 6 2 1
707 236 2 0.527 10.7482871628623 11.16469691229208 26.244883204579306 -3 0 -1
1852 618 1 -1.054 7.273627263046645 14.272977141547171 22.50787075373046 -2 -1 -7
169 57 1 -1.054 6.63498636484904 11.237915709623593 26.933285549717382 -1 -3 0
320 107 2 0.527 11.056804111975183 5.178318789741765 23.061511489588202 1 -3 3
1993 665 1 -1.054 9.09276119826443 15.01177086340008 24.630182097047513 3 0 -2
1648 550 1 -1.054 15.741721265735185 3.0430324191417024 24.213592550486407 -2 2 -7
27 9 2 0.527 12.425892170138878 15.964154973638063 28.144732162533874 6 -1 1
882 294 2 0.527 10.982991365213374 12.469838655107928 22.917338715257983 -5 1 -2
1527 509 2 0.527 13.750832929757136 14.485292538699298 26.955935119997875 0 -1 -4
656 219 2 0.527 3.042299243483905 6.818387797217237 31.109307243613976 2 4 6
1772 591 2 0.527 9.2242924817661 9.224944364349154 23.995750523169047 -1 4 2
2049 683 2 0.527 5.346474978654654 11.628276646705086 19.246486770825534 -2 1 -2
414 138 2 0.527 8.697877182054132 11.57672061845377 21.298161291388816 0 6 -1
1175 392 2 0.527 13.938522176536088 7.780996890621556 24.610660560127194 -1 3 4
300 100 2 0.527 10.118187662354693 4.52216717379437 29.66668069791436 -5 -1 -2
88 30 1 -1.054 16.380438957917363 13.3327261940423 18.974711444104724 -2 1 -5
653 218 2 0.527 13.128669299466338 15.844270575170329 23.3807836509536 1 4 0
1981 661 1 -1.054 8.286236856150737 7.201602671994417 18.270093996823274 5 2 -2
614 205 2 0.527 4.982990650917033 14.66538736483567 18.543060902185605 1 2 -3
2329 777 1 -1.054 7.518574317619989 6.512300207513373 21.973103661421458 4 -6 -6
484 162 1 -1.054 14.922325149952089 7.07317646142136 18.303371684713632 1 0 -4
416 139 2 0.527 10.346959788509213 8.384638244885148 21.820207146814123 -3 2 -1
219 73 2 0.527 14.43360729007845 9.891227853109754 31.424934996722968 1 -7 -4
1650 550 2 0.527 15.476661274500417 3.5248861216206344 24.99704116736765 -2 2 -7
1147 383 1 -1.054 11.86899115809181 3.449660668834843 18.673008465063088 -1 4 2
245 82 2 0.527 14.926306976688418 10.239446263834287 18.326201480393674 4 12 3
265 89 1 -1.054 4.332720271664366 3.9991291130982805 27.20350393574717 9 -2 2
541 181 1 -1.054 4.646359104864529 14.724775107191105 25.01385892457524 -1 2 0
1907 636 2 0.527 15.265563327805813 16.618406998792384 30.1711115347375 1 1 -1
356 119 2 0.527 16.041214669370333 5.0643263166024575 17.92219957681985 -4 -2 0
2085 695 2 0.527 3.3577727955706695 12.376096256391573 20.761997202175127 4 4 0
1364 455 2 0.527 9.201678736740844 5.073599430572371 31.782123321399897 2 -1 -4
1628 543 2 0.527 6.947090031758491 9.937398495517927 30.16982334730998 -8 -3 2
856 286 1 -1.054 17.11853466972968 7.662873141178548 31.68674753263538 4 1 -2
2289 763 2 0.527 4.2388040691371645 3.439876757103597 31.73052457184083 2 -2 3
830 277 2 0.527 15.491435942741447 16.452807425850114 27.87252733862367 2 -2 1
285 95 2 0.527 4.880203937194618 17.157018420376822 20.692053516261474 -3 1 -6
894 298 2 0.527 14.56500640882209 17.418670822135343 24.624734554044537 6 -2 2
2169 723 2 0.527 4.44826650680556 17.386937517249155 22.98879027497145 -9 -3 1
1885 629 1 -1.054 11.614031999007201 17.475024047765114 25.386954468820196 4 -2 1
1953 651 2 0.527 6.069706320588054 17.39024060739779 28.18081624113719 1 2 6
2285 762 2 0.527 6.932334404176877 6.460624827576157 31.835176641629115 0 0 6
218 73 2 0.527 13.00545134249666 10.057692242444755 31.8988072869158 1 -7 -4
2120 707 2 0.527 11.80965830604104 27.353933436538906 15.399336046912861 1 -2 -2
1275 425 2 0.527 9.241550988587157 21.570480409681327 12.144323939903455 6 -1 3
358 120 1 -1.054 3.32592417785867 27.077085539761573 13.779332337942302 -1 0 0
2121 707 2 0.527 12.06160729107093 26.305708121504164 16.46218085815254 1 -2 -2
57 19 2 0.527 3.768360419366936 22.6583512090629 5.869819581195606 1 1 3
1003 335 1 -1.054 14.720304774000272 26.148646241092315 13.000455708326763 1 3 -6
1311 437 2 0.527 7.872393348845995 31.600771931596793 5.402560404483784 -3 0 4
291 97 2 0.527 4.296571865574182 17.508970230710474 6.221023821083826 1 -2 -3
1005 335 2 0.527 13.827500354222625 25.818368459590907 12.90021280762966 1 3 -6
2043 681 2 0.527 6.830095677923666 20.922627602107614 8.17659886468822 -1 2 0
1293 431 2 0.527 7.499269874588868 27.975101312958355 14.39527160132439 1 2 -1
51 17 2 0.527 6.278413864891819 28.148169491429165 11.858050177288149 0 0 4
316 106 1 -1.054 4.354048101099456 23.56383413528152 9.004641956806019 3 5 -3
774 258 2 0.527 9.990732521521952 21.377588556570423 10.261414693748762 -1 5 -6
757 253 1 -1.054 14.604154185713805 22.942625616163326 6.619700188633524 2 -1 -1
1032 344 2 0.527 17.424101516676664 29.904332516057245 12.491944907616812 0 -9 -1
1057 353 1 -1.054 11.988202858860346 23.91194268652419 15.746233209591276 -2 0 2
987 329 2 0.527 9.700166444660757 23.66036070962792 6.3855053395157 -5 -2 2
2215 739 1 -1.054 16.56998765693937 21.81205908519981 16.337042987234163 2 1 0
985 329 1 -1.054 9.836882752452771 22.85649645576475 6.886845891142232 -5 -2 2
214 72 1 -1.054 7.920864879651766 19.937311493976864 15.963287241946079 1 5 8
1071 357 2 0.527 9.158138164775613 25.610059133517293 12.260534587552318 6 -4 2
1399 467 1 -1.054 16.66660122708146 21.52458027268098 9.406677151501018 6 0 -3
2129 710 2 0.527 13.461569950318156 25.89317149221213 6.6098980048358715 0 -2 0
729 243 2 0.527 5.877546872917786 23.127286313372686 4.0009441260067735 -1 3 8
118 40 1 -1.054 4.0209194805983675 20.560464051791342 7.70956465941875 2 2 5
1539 513 2 0.527 8.50164636221743 29.133483113476927 6.299214440945459 3 -6 -4
2310 770 2 0.527 11.48385116665762 31.382327109381922 5.82481541332499 -2 1 2
1294 432 1 -1.054 13.356450645121418 17.833728859345545 10.630096912794674 -4 -1 3
945 315 2 0.527 12.101232126617248 30.09068547550195 10.203333943772622 5 0 -3
1538 513 2 0.527 8.904832695926283 28.23342286360304 5.150638344783882 3 -6 -4
1045 349 1 -1.054 15.319863357724573 21.558181750298502 3.3859569339682003 -2 3 -3
1302 434 2 0.527 12.831339071664791 19.440595455765056 11.25602438124622 -2 -3 -3
790 264 1 -1.054 9.01825560540781 25.147831399348817 15.806148624909712 -2 3 0
1273 425 1 -1.054 9.384795394341738 22.224593299429994 12.828318767159908 6 -1 3
1292 431 2 0.527 8.711625666212841 27.327806400193534 13.760371876689474 1 2 -1
1553 518 2 0.527 5.0633090642844 28.811396848226142 15.752600699435018 1 -4 -3
940 314 1 -1.054 11.546246379552377 30.673894511193176 15.895833159944717 2 -4 0
2361 787 2 0.527 17.239606626694822 20.519255293277716 15.008068541015476 -1 4 1
1106 369 2 0.527 7.460066913917144 18.998363777484535 4.653660008446867 -4 6 1
2021 674 2 0.527 12.796320740702054 20.144234425136407 6.484450718674061 2 -3 1
546 182 2 0.527 16.312262850682288 21.716790372621908 6.000690932373312 0 6 -5
1820 607 2 0.527 14.998037354988142 22.401170950705 9.686954130737032 0 -1 -6
916 306 1 -1.054 8.204715529876212 31.12886167879717 7.653023451390584 -1 -11 6
153 51 2 0.527 11.966475733162996 19.98172287661624 14.830996701747239 2 6 -5
318 106 2 0.527 3.7062174016766383 24.17041460714344 9.363258528818273 3 5 -3
1690 564 1 -1.054 16.32216035320869 29.821113283509337 3.4773886292945444 -5 4 -3
184 62 1 -1.054 5.4264160834044795 20.425128341864106 5.004400663608025 0 -1 3
119 40 2 0.527 3.3071647383993086 21.00023956132341 7.247630623356221 2 2 5
338 113 2 0.527 9.235402301249588 28.706848862630423 15.959943909339588 -3 -3 -3
1970 657 2 0.527 4.576672220241211 25.83600427888848 17.356074259295593 1 -4 -2
85 29 1 -1.054 7.856801704966601 19.36579153059257 12.820100399583998 -1 4 1
2309 770 2 0.527 10.001924898077585 31.55730469145043 6.080104054623722 -2 1 2
748 250 1 -1.054 12.242071855655961 27.31571051966257 9.398703697444311 0 -1 -1
185 62 2 0.527 5.705144270546199 21.278885937553092 5.335520179702352 0 -1 3
727 243 1 -1.054 5.616404117792426 23.29390959233772 4.906633304243732 -1 3 8
1729 577 1 -1.054 16.24215289995761 25.781349828282245 17.247425830554686 6 0 5
223 75 1 -1.054 5.239897525920209 31.518864279890398 13.946934508978165 -3 0 -4
1004 335 2 0.527 15.172248978130002 25.470206792272084 13.502150967625413 1 3 -6
1105 369 1 -1.054 7.611379213683946 18.05598885321541 4.726223158004869 -4 6 1
2360 787 2 0.527 17.222469207221533 19.603417837987287 13.802729106605847 -1 4 1
551 184 2 0.527 10.724668363342616 29.663999891138307 3.16793599097281 1 1 -3
1817 606 2 0.527 10.599251871777739 26.3452819687074 5.422897750490454 4 -5 5
1036 346 1 -1.054 7.39313024499148 19.602052746486176 9.601978630330798 5 -1 -5
2022 674 2 0.527 14.13469607952499 19.62240445962104 6.006601338727835 2 -3 1
844 282 1 -1.054 5.297657584894891 31.33282715003611 17.233601388989506 -2 1 -3
1058 353 2 0.527 11.373500895457852 23.18638348471883 15.855489669236485 -2 0 2
504 168 2 0.527 4.468953665009901 19.067508681960273 11.095461086718183 -7 -4 2
1942 648 1 -1.054 5.869659919313299 23.034320582986595 14.570422491984917 -1 2 5
1631 544 2 0.527 16.553466171897064 26.51070061375006 3.7727953137962658 -2 -8 -1
798 266 2 0.527 16.045640634781748 26.839548893492033 11.70293208478905 3 2 -3
941 314 2 0.527 11.629162460124697 30.365858860117115 14.993352872286321 2 -4 0
1185 395 2 0.527 4.9678701412664745 25.60497394524192 3.8841887018857655 3 0 1
1137 379 2 0.527 13.03828549609836 27.44303562571014 4.097742575167425 4 0 0
563 188 2 0.527 7.704273239218769 24.271056556035973 16.588680597075772 0 -2 1
165 55 2 0.527 5.122650878889106 26.49342424117214 9.901561404620491 4 2 2
1639 547 1 -1.054 11.70145356876751 20.615058870605647 16.676892088862353 0 5 -3
1232 411 2 0.527 8.882382884032364 28.21170248334712 10.879133911089584 3 2 2
520 174 1 -1.054 5.40365930819296 20.181154985631625 14.33749175369257 -1 0 4
462 154 2 0.527 12.412712254241407 21.96831236235385 4.207956087868332 2 -5 2
453 151 2 0.527 4.717669735264449 23.06866355264884 10.954493363061301 -4 -5 -5
1782 594 2 0.527 14.601157154220463 28.086187484274276 15.941126596279428 -2 -1 2
1560 520 2 0.527 6.977463507109075 31.218189412152086 15.938042584978568 -2 0 -2
317 106 2 0.527 3.865949203465119 22.754998982787406 8.85044426364579 3 5 -3
1531 511 1 -1.054 13.283089129690179 21.965324944018985 14.279756969965705 4 -2 2
759 253 2 0.527 14.102205136671875 22.132670049330855 6.710534120648768 2 -1 -1
758 253 2 0.527 14.011949687761966 23.62796248099896 6.929278605775418 2 -1 -1
1069 357 1 -1.054 9.732663677810729 26.307635160653636 12.576033951764023 6 -4 2
215 72 2 0.527 7.6422846201854755 19.95424313671668 16.87889530920247 1 5 8
337 113 1 -1.054 9.289707722437548 29.38443143426823 16.63386127658707 -3 -3 -3
1558 520 1 -1.054 7.8490112485279475 31.576592571852174 15.770163000634897 -2 0 -2
2041 681 1 -1.054 6.744879557200717 21.361183982511793 7.330053944829832 -1 2 0
1310 437 2 0.527 7.842156275312293 31.444517955076737 3.8970487580394826 -3 0 4
1780 594 1 -1.054 14.330316894611999 27.58475865155283 16.710182194967178 -2 -1 2
1580 527 2 0.527 13.845428017745142 18.018632193148274 15.95554333686025 3 5 0
878 293 2 0.527 11.017229534168852 28.74687008176812 6.939742997733835 6 2 2
828 276 2 0.527 6.114361350615238 24.133530683173273 8.892740878171363 2 -1 0
792 264 2 0.527 9.96317963296288 25.2608128784891 15.909033411499179 -2 3 0
544 182 1 -1.054 16.762315883702406 20.99273853566146 5.565451908806068 0 6 -5
1533 511 2 0.527 13.484092239384196 21.292582422949327 14.930331340824097 4 -2 2
458 153 2 0.527 16.863508638966596 19.880387667499672 8.519088499943436 -3 -4 3
1730 577 2 0.527 16.142169042707238 25.170504049998076 16.517287162478876 6 0 5
1936 646 1 -1.054 5.326402045170205 26.4446705304494 8.150980657441211 -5 2 -1
826 276 1 -1.054 7.038816267325193 24.148425428908563 9.140516850824076 2 -1 0
972 324 2 0.527 14.95294356577644 26.679162760996334 5.939491258274861 7 2 -1
1325 442 2 0.527 13.300835937391069 30.537295901925848 7.547767741335779 0 0 2
400 134 1 -1.054 6.105568598443858 25.79960453307949 13.918449179111104 3 -2 -3
986 329 2 0.527 9.305485215516258 22.19971548310718 6.436860314124934 -5 -2 2
164 55 2 0.527 4.236587008081315 26.109216961026526 11.067396017181492 4 2 2
120 40 2 0.527 4.774205578601369 21.139708188958252 7.594378645509238 2 2 5
907 303 1 -1.054 11.044339537364984 19.35608163060219 6.319867371747403 4 5 -3
2308 770 1 -1.054 10.847491110420824 31.988399247452342 6.204227445011967 -2 1 2
216 72 2 0.527 8.427141914267578 20.741942482541806 15.851557190618838 1 5 8
1009 337 1 -1.054 4.186618660505385 20.648153550444647 17.38296023899582 0 4 7
806 269 2 0.527 11.459585555968436 24.288780225681588 10.281090616369365 2 -1 5
1534 512 1 -1.054 7.67932612727806 24.331910569583993 11.929181445035855 -2 0 4
1828 610 1 -1.054 15.430750991614568 22.961361415012902 12.73986835118605 -4 0 0
575 192 2 0.527 8.432212162217192 25.28108176390268 5.345565765715721 1 -2 0
1429 477 1 -1.054 10.577189658232832 30.743612467382746 9.183920456457443 -3 3 -2
1011 337 2 0.527 3.2534205001882865 20.44927168121711 17.4592419427095 0 4 7
772 258 1 -1.054 10.11172928618778 20.558640204010082 10.741951109924393 -1 5 -6
151 51 1 -1.054 11.930137588685783 19.403232256868026 14.069248738999429 2 6 -5
1552 518 1 -1.054 5.505955571707472 28.799111327521754 14.903987314488393 1 -4 -3
1397 466 2 0.527 15.916034177188656 31.425257414835418 9.10114103382952 -1 -2 -1
152 51 2 0.527 12.752084192429459 18.913667509222563 14.100262659251909 2 6 -5
1047 349 2 0.527 14.384738276337599 21.639003929055924 3.573681876830375 -2 3 -3
2042 681 2 0.527 7.3238302624509135 22.12076836514922 7.393924056085434 -1 2 0
452 151 2 0.527 5.512372094019468 22.751488546677283 12.203389960334302 -4 -5 -5
1685 562 2 0.527 17.090605635280994 31.53659356455905 6.097965877725467 -1 -3 4
1818 606 2 0.527 11.10049675600175 25.259658313785106 6.351375013331618 4 -5 5
1107 369 2 0.527 8.028030722155604 17.944928010837014 5.580798237197374 -4 6 1
2341 781 1 -1.054 6.7350784209531085 31.670100414159855 10.909028888797765 3 -7 -3
1301 434 2 0.527 12.674699142132601 20.34414215141592 12.46058321785918 -2 -3 -3
2044 682 1 -1.054 17.410728289480726 28.93601042178752 16.294965986138497 -2 -3 -1
661 221 1 -1.054 16.123668590873592 24.382879333740668 14.950592156736704 3 5 -1
750 250 2 0.527 12.349733088515181 26.511150076146585 9.905973706877392 0 -1 -1
1535 512 2 0.527 7.275569237753257 24.96731805601936 12.520340472677265 -2 0 4
1400 467 2 0.527 17.35523231642315 21.869613069983842 8.838371928952176 6 0 -3
163 55 1 -1.054 5.007399960139148 26.630027003938068 10.841927588438828 4 2 2
2216 739 2 0.527 16.39190228773004 22.276660101301804 17.154761335415365 2 1 0
1632 544 2 0.527 16.157203855755665 27.89850022137692 3.3157577500086206 -2 -8 -1
50 17 2 0.527 6.853274155174231 29.506059265522826 11.515171853761021 0 0 4
1554 518 2 0.527 5.204467855167408 29.594225441880177 14.464521389290077 1 -4 -3
519 173 2 0.527 4.155584434896364 29.76376716823661 8.319788159826194 2 -3 0
1537 513 1 -1.054 9.100578240233697 28.423473495945213 6.068132660292429 3 -6 -4
460 154 1 -1.054 12.744221351359911 21.090553477256822 4.018554721383431 2 -5 2
884 295 2 0.527 12.332223336847237 30.329365995357907 13.27828792474741 4 0 -1
2045 682 2 0.527 16.600096870004442 29.19987094480732 15.859666365379463 -2 -3 -1
2165 722 2 0.527 3.395194106745734 30.919397777405223 5.58003326248967 1 0 0
2103 701 2 0.527 9.040853770923032 23.03445240677025 15.870596088675201 -6 -2 0
773 258 2 0.527 10.994753663924248 20.622162768093318 11.105907634863799 -1 5 -6
389 130 2 0.527 15.782717658729302 19.388052965325016 11.610553021757152 0 2 0
517 173 1 -1.054 3.9748143201305837 28.993703198395217 7.780756286319587 2 -3 0
574 192 1 -1.054 7.479486056795927 25.355947493648245 5.399783165107711 1 -2 0
1059 353 2 0.527 12.429951398964745 23.981730983528838 16.592530735015604 -2 0 2
87 29 2 0.527 8.579023956653291 18.830404871709636 12.49148516510097 -1 4 1
1135 379 1 -1.054 12.282592907665387 27.052853870263394 3.658517655425976 4 0 0
86 29 2 0.527 8.28361641697 20.08203168513322 13.290271669093114 -1 4 1
797 266 2 0.527 17.37906700200393 27.18940149561426 11.07725520709288 3 2 -3
402 134 2 0.527 5.99056703748801 24.92256762171652 14.284253420314059 3 -2 -3
522 174 2 0.527 5.593728317214743 20.228495501393517 15.27443589487283 -1 0 4
1231 411 1 -1.054 9.228337613907618 28.28894940093315 9.989988234384263 3 2 2
944 315 2 0.527 12.910136515578323 29.261584176198408 11.1780950627478 5 0 -3
1536 512 2 0.527 7.200785721174453 24.43193589192499 11.106244402951877 -2 0 4
2020 674 1 -1.054 13.726186655671901 20.368110228060626 6.446231523768173 2 -3 1
1532 511 2 0.527 12.793789319564633 22.629746721863004 14.764896939884872 4 -2 2
555 185 2 0.527 6.690032313301557 18.060964889901307 17.408063730626104 -3 0 4
791 264 2 0.527 8.723640103901875 25.957808953169 15.389771856985666 -2 3 0
872 291 2 0.527 11.860518226980563 23.890010405152424 3.3578686492281684 1 -1 -4
289 97 1 -1.054 4.961517790398583 17.940962032745542 6.75717842545374 1 -2 -3
1630 544 1 -1.054 16.11768983820415 26.97709092524051 3.0594858577146495 -2 -8 -1
1037 346 2 0.527 8.063126763116436 19.053816486613808 9.193599610360781 5 -1 -5
662 221 2 0.527 15.864081480663929 23.909244118024553 14.160329438720613 3 5 -1
1829 610 2 0.527 15.045139341349714 23.072673869702662 11.87087769770698 -4 0 0
1326 442 2 0.527 13.463765841455094 31.014792662605426 8.975123876562627 0 0 2
576 192 2 0.527 7.3256539490736605 25.915294291546058 6.1611626131562875 1 -2 0
2123 708 2 0.527 8.439996694003279 30.104334473619936 12.824795732631612 -4 -3 -1
521 174 2 0.527 6.216079160134207 19.86330283349438 13.94356833066783 -1 0 4
461 154 2 0.527 13.297270248634941 20.875644389082463 4.769675782199836 2 -5 2
2217 739 2 0.527 16.505803414077796 22.48528495799647 15.659636929471363 2 1 0
250 84 1 -1.054 14.870746986882802 28.371563904167648 8.694118324857836 -5 4 -1
339 113 2 0.527 8.788932679815979 30.118163090605755 16.27735879485586 -3 -3 -3
1781 594 2 0.527 15.022127427895601 26.933816805584208 16.828099452674355 -2 -1 2
807 269 2 0.527 12.883239678876766 24.03368619313125 9.833842291132665 2 -1 5
917 306 2 0.527 8.815594926682227 31.338490932290767 8.35950305594767 -1 -11 6
502 168 1 -1.054 5.073928965237396 18.36384268604277 10.860747189714925 -7 -4 2
873 291 2 0.527 12.127323826807174 24.46990307648595 4.730615473286901 1 -1 -4
290 97 2 0.527 4.505752151177972 18.684432002358708 7.151845178919052 1 -2 -3
749 250 2 0.527 11.35740950541225 27.6150771051887 9.608426827195458 0 -1 -1
2128 710 1 -1.054 12.77804765317086 25.506375329864802 7.157088793985745 0 -2 0
1830 610 2 0.527 14.809880105505396 22.403354746951873 13.208248081704527 -4 0 0
1324 442 1 -1.054 13.40929269917228 31.330136676347745 8.073002704415794 0 0 2
2057 686 2 0.527 3.7494264710488725 31.217607654780597 9.726978022167843 -1 1 -6
1035 345 2 0.527 8.697617752060035 23.33595712780094 9.717631854698944 -1 3 0
186 62 2 0.527 5.340861522092318 19.880512291794037 5.7869001035955865 0 -1 3
909 303 2 0.527 10.39202501881624 19.9234040586873 5.908938389337458 4 5 -3
2101 701 1 -1.054 9.542424194238576 22.248023968072417 15.655679330543505 -6 -2 0
252 84 2 0.527 14.047894982302761 28.185035933391774 9.146173067812487 -5 4 -1
1821 607 2 0.527 14.044801850597898 21.641003754043137 10.584385330988791 0 -1 -6
805 269 1 -1.054 12.315877210001705 24.709652236457252 10.2045193296786 2 -1 5
2122 708 1 -1.054 8.797742207850668 30.961724134314757 13.055300305242387 -4 -3 -1
503 168 2 0.527 5.774839404859897 18.801226870440125 10.37737236042991 -7 -4 2
970 324 1 -1.054 14.34460357575908 27.282144828846484 5.512212833985705 7 2 -1
1300 434 1 -1.054 12.723902984674853 20.358647909668647 11.504758867797706 -2 -3 -3
2211 737 2 0.527 15.86688049526824 24.59602323076661 6.973924942988111 -3 -1 4
432 144 2 0.527 12.703611897627704 29.93491978785374 17.240662054368045 -7 -2 3
2246 749 2 0.527 11.36868237755241 18.40812993633894 3.0139857455798036 -3 -6 2
1164 388 2 0.527 12.40196754868376 24.8106608224172 11.936926074830646 -1 -5 1
1034 345 2 0.527 9.729442483440975 22.907213589215548 8.696156517940143 -1 3 0
1691 564 2 0.527 16.231303212911925 30.527959700912838 4.116407141759502 -5 4 -3
877 293 1 -1.054 11.876475561551926 29.033821612627317 7.2489142891533 6 2 2
1088 363 2 0.527 3.595300347022095 20.35699655179439 14.429594430868324 4 2 -3
1944 648 2 0.527 5.148902234231842 22.406124969547367 14.524485317040376 -1 2 5
943 315 1 -1.054 12.974932735890695 30.010984417846018 10.58612184954661 5 0 -3
1937 646 2 0.527 4.777289507743787 27.218195551682157 8.278910780898704 -5 2 -1
670 224 1 -1.054 3.388526564090883 28.496403207670372 17.351042061184852 3 -4 1
451 151 1 -1.054 4.886809922879478 22.370529284458705 11.587132065917732 -4 -5 -5
1233 411 2 0.527 9.640349732643836 29.152631712721625 9.966975752440911 3 2 2
691 231 1 -1.054 5.1938236104424815 31.71950079318982 5.663947591106879 3 1 -8
2102 701 2 0.527 9.609827145161406 22.259828637585787 14.70092848158182 -6 -2 0
2056 686 1 -1.054 4.577257742413637 31.445797417737825 9.304063610188853 -1 1 -6
918 306 2 0.527 7.3625120879380574 31.00870765286818 8.09175765242426 -1 -11 6
2195 732 2 0.527 3.4406208441932846 21.046056690414463 11.517368404823314 2 -4 -3
251 84 2 0.527 15.499996685571054 27.762072566748003 9.079860331060827 -5 4 -1
359 120 2 0.527 3.6943144619006083 26.472909161191705 13.134746392736714 -1 0 0
2060 687 2 0.527 8.486487951075036 26.982036843541284 8.872611755667709 -2 2 -4
2130 710 2 0.527 12.896974855801613 25.915146887357967 8.014406550148973 0 -2 0
1938 646 2 0.527 6.2170910460680755 26.789988859703243 8.090481875283219 -5 2 -1
1859 620 2 0.527 17.20475899786573 21.92656166190492 12.665128448627188 3 -2 2
1070 357 2 0.527 10.555294501459933 25.864999003329302 12.784800732880406 6 -4 2
2154 718 2 0.527 10.366224570096696 19.295684118297377 9.305206387999569 2 -3 0
942 314 2 0.527 10.80343376035449 30.184409613129354 16.249196560692997 2 -4 0
2342 781 2 0.527 6.142790511850181 31.65270203901421 10.157281710620554 3 -7 -3
984 328 2 0.527 9.113241796474618 18.775969951302578 16.780684850306567 1 2 5
401 134 2 0.527 6.173641003614944 26.37149023666645 14.683004426993186 3 -2 -3
1163 388 2 0.527 12.54600946250745 24.408205682849886 13.38922638883602 -1 -5 1
827 276 2 0.527 7.3737713777671825 24.964453327550466 8.768851295848245 2 -1 0
225 75 2 0.527 5.5100047878750225 31.4588804669678 13.030596424654082 -3 0 -4
1559 520 2 0.527 7.9673930273562314 31.486735326341215 14.824571517292707 -2 0 -2
1136 379 2 0.527 11.956117845752308 27.744425727404902 3.0828671028859627 4 0 0
2124 708 2 0.527 8.749867127838561 31.467692526656496 12.244168147750102 -4 -3 -1
1816 606 1 -1.054 10.425127973515785 25.445461299989468 5.69900542678786 4 -5 5
1033 345 1 -1.054 9.559675520174414 22.927618597500214 9.637960166864659 -1 3 0
1038 346 2 0.527 7.8683556687027645 20.11480587486303 10.255795578398084 5 -1 -5
1031 344 2 0.527 16.42735264614902 29.18482373059276 11.608376075779644 0 -9 -1
1162 388 1 -1.054 12.23694511515153 25.119249890227973 12.827865027984101 -1 -5 1
1640 547 2 0.527 10.91190932104343 21.1370396295969 16.53410625500752 0 5 -3
1291 431 1 -1.054 8.351760854295383 27.594390314301332 14.606340053503704 1 2 -1
2119 707 1 -1.054 11.370017080369118 26.847700044952816 16.082471899500764 1 -2 -2
1130 377 2 0.527 15.120148790882475 18.16882721208405 13.478040023069438 -4 5 1
1430 477 2 0.527 11.123864192954239 30.44926234348399 8.45540359844129 -3 3 -2
1819 607 1 -1.054 14.223824824217466 22.51524706040867 10.238146847366481 0 -1 -6
1295 432 2 0.527 13.677170975978946 17.50220866149865 9.791368925144353 -4 -1 3
971 324 2 0.527 14.48858718545111 28.120034310513137 5.952032876300975 7 2 -1
2210 737 2 0.527 17.02391234322138 25.56738257837345 6.875775772021992 -3 -1 4
728 243 2 0.527 6.270920492017518 23.910021032642366 5.235641940686626 -1 3 8
1401 467 2 0.527 16.97848645144146 21.698962177251115 10.294680376168932 6 0 -3
1286 429 2 0.527 3.5954961139152477 25.953410668923514 7.4213422279548755 -7 -4 -3
1309 437 1 -1.054 8.427533468518305 31.38826980722291 4.652298012528895 -3 0 4
49 17 1 -1.054 7.084238435043795 28.662677573751747 11.904523210156169 0 0 4
1046 349 2 0.527 15.681241601471326 21.114667833104626 4.1533765389683195 -2 3 -3
879 293 2 0.527 12.189357903868034 28.31116984815193 7.7930749944566 6 2 2
1183 395 1 -1.054 5.042286152474324 26.245087185729375 3.1764111334269454 3 0 1
2209 737 1 -1.054 16.07405891523321 25.530423801000225 6.98822266531336 -3 -1 4
1274 425 2 0.527 8.78860809396975 22.93949091623096 12.605352838818082 6 -1 3
2153 718 2 0.527 10.011121366133205 17.85905325913346 8.98600758927737 2 -3 0
908 303 2 0.527 10.66701202207049 19.133828814807217 7.171019240782272 4 5 -3
2061 687 2 0.527 8.588282873146133 27.01064846294018 7.362408544170201 -2 2 -4
929 310 2 0.527 7.754367584032441 27.035491372328945 3.7106404282805796 -3 -2 0
557 186 2 0.527 15.510844017964695 29.746802525230223 13.8655474823721 1 4 5
2059 687 1 -1.054 8.118281961213095 26.58852407283255 8.081534086747935 -2 2 -4
388 130 1 -1.054 16.344731321118132 18.93158659621711 12.236660728282601 0 2 0
1030 344 1 -1.054 16.530200618030616 29.963926874253744 12.154867015739093 0 -9 -1
1396 466 1 -1.054 16.04850449276729 31.7864098156428 9.977641054198694 -1 -2 -1
1398 466 2 0.527 15.96516658039509 31.033350465550974 10.562609493404674 -1 -2 -1
883 295 1 -1.054 11.789275812746327 29.541107900742062 13.287707778659815 4 0 -1
558 186 2 0.527 15.050782791161803 30.546669694176728 15.065735429352976 1 4 5
885 295 2 0.527 10.891554493593254 29.867280522422547 13.224948738036819 4 0 -1
928 310 1 -1.054 8.445433327387107 27.69287023870631 3.629943102035258 -3 -2 0
871 291 1 -1.054 12.521764935861782 23.92576039158659 4.049031678811802 1 -1 -4
550 184 1 -1.054 10.899943654043474 30.093076130359755 4.0054345738773485 1 1 -3
360 120 2 0.527 4.073162660459268 27.596735110551357 14.075694909279177 -1 0 0
390 130 2 0.527 17.195346854766296 18.878041942849716 11.800979781548902 0 2 0
518 173 2 0.527 3.909728347074794 29.33500003331359 6.888841635654713 2 -3 0
796 266 1 -1.054 16.44436570076623 27.38997474589385 11.02892819386522 3 2 -3
545 182 2 0.527 17.07133518247911 20.43732352367847 6.281169985734144 0 6 -5
552 184 2 0.527 10.16567029677408 30.695428573733793 4.1247905956360675 1 1 -3
1943 648 2 0.527 6.3233117723695536 22.819892742316068 15.385562013422433 -1 2 5
1431 477 2 0.527 10.704511956180568 31.691901827711497 9.21163498475659 -3 3 -2
556 186 1 -1.054 15.163916768654046 29.649336936980923 14.752324604641078 1 4 5
1184 395 2 0.527 4.194976258623937 26.690256774363252 3.165376299778235 3 0 1
1129 377 1 -1.054 14.444735808087005 18.147893121154183 14.155986037997952 -4 5 1
1775 592 2 0.527 8.390883769780494 20.86216589282906 4.494069609827362 1 -1 2
2247 749 2 0.527 11.120092147502964 18.71718775339163 4.475006373887981 -3 -6 2
1597 533 1 -1.054 16.967652062771002 30.162820739795613 7.505031034655479 3 3 2
2245 749 1 -1.054 10.770348688351033 18.21844386562525 3.7366528968605737 -3 -6 2
1774 592 1 -1.054 8.749018546208895 20.937217245923858 5.378568442678902 1 -1 2
1199 400 2 0.527 4.542082736254735 20.127270580255313 3.376596234056013 -1 2 7
562 188 1 -1.054 7.076937216844372 23.693052323236483 17.02295277861628 0 -2 1
663 221 2 0.527 16.984809506401785 24.744757832510256 14.741518042130478 3 5 -1
1776 592 2 0.527 8.016258924782955 20.716876561900623 5.953672897445052 1 -1 2
459 153 2 0.527 16.045006121980457 18.790672886537873 7.859944985319184 -3 -4 3
457 153 1 -1.054 16.86639197960128 19.275192128113137 7.777494438925582 -3 -4 3
1598 533 2 0.527 16.55413140486464 29.320087167363763 7.317861280568527 3 3 2
2152 718 1 -1.054 9.885988430018116 18.75631011380575 8.676970877962749 2 -3 0
272 91 2 0.527 15.951182587895957 22.780697986607393 19.3090559646358 1 -1 -5
1712 571 2 0.527 9.590692570357131 20.56392625779227 21.12180445784242 -3 -1 -1
273 91 2 0.527 17.292236911048924 23.466149448773283 19.155352418176488 1 -1 -5
1594 532 1 -1.054 6.154117177729551 24.771925318212737 26.44367537998875 -2 -1 -2
2114 705 2 0.527 12.312404583793587 19.4274182232184 29.245116612219856 0 3 1
314 105 2 0.527 7.026603686585986 28.17989569700725 28.43980827055826 3 0 -6
893 298 2 0.527 15.485188828426892 18.006030887728762 25.67362327336566 6 -2 2
1025 342 2 0.527 12.361056835703922 22.54191136798994 20.570566976531765 9 -2 -1
1415 472 2 0.527 3.207953720114297 30.441231682193088 25.19529084443025 4 2 3
1227 409 2 0.527 9.753734766532384 31.559913073745612 24.43214243248089 4 -3 -2
687 229 2 0.527 3.2554505343063824 27.72248337502217 26.06454345455425 -1 3 -11
1221 407 2 0.527 12.715606783143107 31.07329920412321 25.4745002788724 1 -1 1
1596 532 2 0.527 7.06413783329853 24.51655319441726 26.59493378349636 -2 -1 -2
2334 778 2 0.527 4.08066689830904 21.0661328509705 23.99518262286476 1 0 -1
1187 396 2 0.527 7.449146637636333 31.10126544288289 21.498012938748204 -3 4 -2
1689 563 2 0.527 11.62071789281085 20.8935434144021 23.245457176444937 1 1 -2
33 11 2 0.527 3.3193760368142464 30.746502969565483 22.923352798679403 -2 -2 -1
1454 485 2 0.527 8.270250559662895 26.070044012299622 23.88457818178616 1 6 -6
740 247 2 0.527 17.40733207135025 29.403904713906776 21.002489407828147 -2 0 -2
238 80 1 -1.054 17.16093545813489 23.624976832676058 31.486157124633092 -6 2 0
1676 559 2 0.527 6.275457822004934 30.293103295470885 23.602873337089793 1 -2 2
467 156 2 0.527 5.467722895697105 24.308589339899083 21.612210660164198 -1 -1 -4
1188 396 2 0.527 8.170919369770898 30.13990041241048 20.577841175852953 -3 4 -2
1289 430 2 0.527 15.419972891519821 18.97010261664463 27.59917867935016 -3 -7 -4
962 321 2 0.527 4.830968435938099 28.816605833012137 22.61023476667482 0 -3 2
612 204 2 0.527 4.672706133252084 20.999451719343032 30.167355897022567 4 1 -2
1336 446 1 -1.054 14.33545499612047 27.86429978574584 25.017520078230422 3 6 10
2181 727 2 0.527 7.426322306108081 18.137970400810598 25.974622554218033 -9 -1 -1
2063 688 2 0.527 9.268333560478515 20.464509778565116 30.042867810876672 -1 5 1
1822 608 1 -1.054 4.874345125268788 22.669120010088168 19.310209324569335 -2 3 -2
1156 386 1 -1.054 13.954377285692713 22.633279157949673 29.88664851418756 -1 3 -3
2304 768 2 0.527 12.066636555052208 22.777633282276444 30.525801203423267 1 -6 -3
395 132 2 0.527 9.09810336704277 24.300974199485484 21.021276644129166 -3 0 1
2147 716 2 0.527 13.401081437835447 21.103890234983393 25.201930671912628 -3 -6 0
239 80 2 0.527 16.493675827484463 23.11010097717799 31.939917868377222 -6 2 0
1395 465 2 0.527 16.914384342518275 20.455081813738836 28.626911209389167 4 3 -2
2332 778 1 -1.054 3.447283224398292 21.523868611204282 23.44243082789709 1 0 -1
1338 446 2 0.527 14.947912149847879 28.581805301160248 25.179735028137507 3 6 10
1734 578 2 0.527 16.697569668767184 27.582110488611978 30.52086225121154 2 0 0
1800 600 2 0.527 13.465582162331016 31.55481678170502 28.228348796273707 3 -1 2
628 210 1 -1.054 11.785076781687431 29.722700715779435 20.929969029002333 4 5 4
293 98 2 0.527 16.001447864464883 28.853061862150092 23.154959720928527 -3 -2 4
1356 452 2 0.527 4.19678219452469 25.69597619662325 28.534001038759815 4 9 -3
2125 709 1 -1.054 16.51225481223973 23.668086102106948 23.883845437647768 2 2 -4
1642 548 1 -1.054 3.8506560220258224 29.053540698926053 29.12534598061713 2 2 3
587 196 2 0.527 13.593959357422804 30.086519113553837 21.294474126761912 0 0 3
2193 731 2 0.527 7.744952856889276 22.153521363638998 24.379805794794333 1 0 1
2207 736 2 0.527 9.726113388269644 22.711466479062196 24.431244629624437 4 7 -1
475 159 1 -1.054 16.404962902149368 18.787458724097366 22.48654374843957 4 -4 0
1929 643 2 0.527 4.225997785897947 19.365731878442766 25.908427763612067 -4 0 -2
155 52 2 0.527 10.785133408934506 29.52570448591764 24.628834839443112 -4 -2 3
1242 414 2 0.527 13.500998327975465 26.64883635389469 23.725250849930163 -2 4 -3
1240 414 1 -1.054 12.96124101053681 26.02512081684039 23.239583888333367 -2 4 -3
2185 729 1 -1.054 16.81687826327499 29.657891742628802 24.95579274229116 -7 3 1
1969 657 1 -1.054 5.415989190611248 25.99374370253137 17.7883902648685 1 -4 -2
76 26 1 -1.054 14.000210747270287 23.427521760572336 23.20440158828977 3 3 4
2283 761 2 0.527 10.335566966050447 20.860118454316584 19.065611920130188 0 9 2
396 132 2 0.527 10.4940049077584 24.817170783507446 20.74398091025352 -3 0 1
2127 709 2 0.527 15.561234593876302 23.63617065573535 23.780048848641457 2 2 -4
1200 400 2 0.527 3.6875094111255278 19.049481023333104 31.83643384603886 -1 2 6
480 160 2 0.527 9.765364197358402 27.44291379857074 18.659439761309127 5 4 -4
1371 457 2 0.527 15.56381982718939 31.471916856101274 18.314529255399464 2 -1 -3
1764 588 2 0.527 12.248251524255835 26.34615309949931 21.236366272952743 0 -1 3
586 196 1 -1.054 14.386126553477972 30.61177999648117 21.407624578253476 0 0 3
1186 396 1 -1.054 7.610755402420897 30.16894441834236 21.353472834052443 -3 4 -2
2091 697 2 0.527 9.77541855128113 26.8450903105041 31.187707246668452 5 0 0
1659 553 2 0.527 14.189385725357056 24.145957918132414 27.444767854118222 -1 5 -6
2077 693 1 -1.054 15.31827023517598 25.64682702541171 27.2391350701096 -7 -3 2
2113 705 1 -1.054 12.346483270822516 19.101256028809384 28.345845492940438 0 3 1
1880 627 2 0.527 7.638361032870963 19.359397610790356 31.680484551722614 -2 5 -1
629 210 2 0.527 11.786011172184278 29.337346571193578 20.05376520977503 4 5 4
2212 738 1 -1.054 7.885905815258572 27.718165551808802 18.442725847765786 1 1 2
1887 629 2 0.527 12.092404843411169 18.287600342092368 25.222301640839163 4 -2 1
514 172 1 -1.054 9.929421708409437 28.27558270839694 22.295252861060337 -5 3 -6
241 81 1 -1.054 4.547275650964418 26.735505637573926 23.083709843248638 4 -3 -1
1468 490 1 -1.054 11.800397660053948 28.943599300824484 30.595103049980978 1 -4 -2
794 265 2 0.527 5.75769657259078 21.226735423522925 27.93803369151371 -3 3 -5
1675 559 1 -1.054 6.76219866596403 30.484069417273282 24.404650816239432 1 -2 2
292 98 1 -1.054 16.077577641151976 28.499361344781033 22.268770227938536 -3 -2 4
476 159 2 0.527 15.776366840296763 18.572018332886106 23.17551707288506 4 -4 0
1917 639 2 0.527 13.627848257437531 18.637341356934478 20.618575727922735 4 4 -5
2078 693 2 0.527 16.184806703946812 26.0059585902367 27.048423619452965 -7 -3 2
1688 563 2 0.527 12.716845630025487 19.888973046343704 22.960435942850584 1 1 -2
2191 731 1 -1.054 7.048263627917282 21.686549864018687 23.918510697272286 1 0 1
2306 769 2 0.527 14.086826114587973 24.53003799754468 18.163642965104305 -4 1 -1
839 280 2 0.527 16.91393056517044 20.43891262390369 22.29140785603477 2 5 1
477 159 2 0.527 17.246493542191672 18.48216726859937 22.82544656794293 4 -4 0
156 52 2 0.527 11.897810611943775 29.634963748916558 23.608096378347852 -4 -2 3
2079 693 2 0.527 14.712039535664305 26.355596052561655 27.0238152945898 -7 -3 2
2303 768 2 0.527 10.719251710758154 22.15178799186215 30.234654520768785 1 -6 -3
1713 571 2 0.527 9.213991394614574 21.282642212069106 22.399864587405737 -3 -1 -1
283 95 1 -1.054 4.1192234076146 17.678360448414512 20.947676095006873 -3 1 -6
859 287 1 -1.054 15.644967761419087 18.46264370766057 30.6280983078421 1 -2 3
2302 768 1 -1.054 11.141795285659645 22.82502273404892 30.767987031443585 1 -6 -3
154 52 1 -1.054 11.726529052693936 29.392499143747585 24.51809928000922 -4 -2 3
1026 342 2 0.527 12.126363443976956 21.07089170434332 20.840595367139017 9 -2 -1
110 37 2 0.527 5.627825592829135 24.73105526396149 31.108049916207108 2 3 1
240 80 2 0.527 17.379374702389697 23.10591137673322 30.71215010037772 -6 2 0
364 122 1 -1.054 12.271390036867945 28.696004259252508 27.850716090234318 3 -2 -4
1731 577 2 0.527 16.579162277053562 25.244724831357413 17.96484480689373 6 0 5
1569 523 2 0.527 13.72256401997148 25.718653366675962 31.21511386160011 -4 -8 -4
1241 414 2 0.527 13.209516679919705 25.16947431520773 23.589526844090692 -2 4 -3
1157 386 2 0.527 14.789694790499311 22.209191622266612 29.690113227546234 -1 3 -3
2305 769 1 -1.054 13.175729497375503 24.243371151336035 18.226545622223444 -4 1 -1
1658 553 2 0.527 13.584810501729597 23.175507523586518 28.437042979431627 -1 5 -6
315 105 2 0.527 8.323482203039157 27.84975932017263 29.147628981025996 3 0 -6
2281 761 1 -1.054 10.884186877985162 20.177150228682144 19.45136103186794 0 9 2
1225 409 1 -1.054 9.393672916542744 31.07334186336524 23.69063340814064 4 -3 -2
1010 337 2 0.527 4.331363224380458 21.362154161942073 18.00383298767668 0 4 7
2089 697 1 -1.054 9.79207837499415 26.75772781319118 30.234647958026972 5 0 0
685 229 1 -1.054 3.920445829374353 27.082734586379626 25.81011360029016 -1 3 -11
946 316 1 -1.054 3.2215566903995314 20.337209369718934 20.535069177499906 -2 1 0
77 26 2 0.527 13.871524036388251 22.647891385269954 23.74463055510972 3 3 4
1881 627 2 0.527 9.121146429360412 19.42666899406994 31.978338757780236 -2 5 -1
1971 657 2 0.527 5.1812223160629305 26.343395514116025 18.647959867026266 1 -4 -2
111 37 2 0.527 6.690753501638214 23.661117655498455 30.976475739184924 2 3 1
961 321 1 -1.054 4.508720915923377 29.591956927611008 22.150649199100734 0 -3 2
242 81 2 0.527 4.863664579206075 25.83398252269365 23.025520864260393 4 -3 -1
1763 588 2 0.527 11.483177664420841 26.649117102821286 19.965630575954446 0 -1 3
955 319 1 -1.054 16.88329516315604 21.61203921107553 25.68957882085548 -5 -5 2
508 170 1 -1.054 5.5298750906495915 28.928451768035032 19.413902027693666 -4 -1 -1
2233 745 1 -1.054 10.501562063332813 26.426327538985845 24.48336218168101 -4 6 7
78 26 2 0.527 13.595645762319293 23.20748650796962 22.365269219265027 3 3 4
1307 436 2 0.527 9.776951284881948 25.837607902881004 26.33269540478022 -3 -3 -5
2223 741 2 0.527 4.085348542991533 18.410246475238015 28.068204001517763 0 -7 3
271 91 1 -1.054 16.37092631753586 23.5410915262643 18.906751767345067 1 -1 -5
2187 729 2 0.527 16.88548453498406 29.839728403799587 25.893054821193886 -7 3 1
963 321 2 0.527 4.816312026442107 29.482703223913582 21.250825329043582 0 -3 2
841 281 1 -1.054 6.757267512843663 20.058185742732597 18.429341266175395 1 10 1
2226 742 2 0.527 7.133692526654901 27.423910103283763 25.95005569136878 -4 -4 -5
1950 650 2 0.527 5.946095382157269 30.023526349695306 31.46204245693585 -1 0 -4
510 170 2 0.527 6.399393968306139 28.572461775841198 19.23103672068778 -4 -1 -1
1799 600 2 0.527 14.039785781555404 31.52653454592488 29.628843351492858 3 -1 2
7 3 1 -1.054 9.54103436339319 22.556684239257255 18.66952026758831 -2 3 5
921 307 2 0.527 14.746963203833738 30.45172068838709 31.661782464993543 4 -1 3
793 265 1 -1.054 6.391228566210859 21.002420195994727 27.256453517019203 -3 3 -5
1916 639 2 0.527 12.793601022103024 17.81006563072619 21.573322318633252 4 4 -5
2069 690 2 0.527 3.3680691897269797 30.92916727953859 20.31223696969626 2 -2 4
1967 656 2 0.527 9.478842668005651 30.55846059064693 27.345380384962844 1 1 2
1888 630 1 -1.054 8.6895450825759 22.9279682367598 26.11774254174878 -6 1 1
2186 729 2 0.527 16.404887898782786 30.44020793943633 24.589081686854257 -7 3 1
1140 380 2 0.527 14.389823491493715 21.632971839536822 20.37572998372112 -3 -6 0
1915 639 1 -1.054 12.94758052199258 18.71067454233976 21.28797056525111 4 4 -5
2115 705 2 0.527 13.212481927554885 19.358890606158216 28.029773186464574 0 3 1
1416 472 2 0.527 4.429380003067119 30.83708880968228 25.997356831600175 4 2 3
2222 741 2 0.527 3.2263672524384015 19.629389625735772 28.328465990616795 0 -7 3
630 210 2 0.527 11.142108531096646 29.208063069170006 21.417792395860378 4 5 4
366 122 2 0.527 12.418807204191259 27.75609061074176 27.745539398437614 3 -2 -4
1370 457 2 0.527 14.951746706397827 30.124363500699296 18.63290148102657 2 -1 -3
741 247 2 0.527 17.007800523429907 29.93663939690231 19.642907312279334 -2 0 -2
1927 643 1 -1.054 4.642189863041994 19.630885232886477 25.088239006065567 -4 0 -2
258 86 2 0.527 14.753418032418272 19.520450592200742 19.301983051518526 1 3 -1
932 311 2 0.527 3.528165260942849 23.520297517388357 28.93346211538456 -1 -2 2
957 319 2 0.527 15.953232945333683 21.396807503104533 25.759515224500497 -5 -5 2
1624 542 1 -1.054 9.525791404023497 30.891685007549828 29.987024784100306 5 1 -8
342 114 2 0.527 9.690709353567513 31.514364541968686 21.90161094848806 0 2 -1
394 132 1 -1.054 10.0125327601804 24.02219787329528 20.972965359537845 -3 0 1
1890 630 2 0.527 8.081918774850106 22.402788225439483 26.638518906770635 -6 1 1
567 189 2 0.527 11.999065676767714 17.51570544094529 18.313660850580558 2 2 0
678 226 2 0.527 5.989197725285861 23.247327299993596 23.69032429178342 7 -4 -1
1455 485 2 0.527 7.194721642028388 26.89074249544164 23.205176438482454 1 6 -6
2168 723 2 0.527 4.598103634036798 18.02341285090153 24.35419974552743 -9 -3 1
1024 342 1 -1.054 12.615590066432619 21.830061832891193 21.157691230315965 9 -2 -1
516 172 2 0.527 9.791122333085735 27.43737785908035 21.85421151296814 -5 3 -6
1856 619 2 0.527 9.689516292745388 18.120125596066025 24.905083194588457 3 1 2
2090 697 2 0.527 10.638818913665467 27.120923302424742 29.975126955118803 5 0 0
611 204 2 0.527 5.078195821659226 22.453386728894756 30.050967696820788 4 1 -2
2068 690 1 -1.054 3.88616008446548 31.453199738327477 19.701333216641345 2 -2 4
1948 650 1 -1.054 6.658482836215081 30.649186171694105 31.593517046691773 -1 0 -4
2234 745 2 0.527 10.219517798254632 27.188857742368075 23.978158692265207 -4 6 7
1219 407 1 -1.054 12.84804000022166 31.17739927398251 26.416761359807733 1 -1 1
1297 433 1 -1.054 8.582587201198207 24.01440505878522 30.69556261297775 10 -4 8
515 172 2 0.527 9.068067101739217 28.509971755000393 22.640740259510352 -5 3 -6
1308 436 2 0.527 9.986455517870722 25.971926337845996 27.826000996900863 -3 -3 -5
982 328 1 -1.054 9.524275362014162 18.404994024027918 17.56149213085267 1 2 5
1435 479 1 -1.054 16.696381154127007 31.499503482516733 27.793558647933818 2 1 -6
8 3 2 0.527 9.756183848877317 23.1174603448067 19.414820663950465 -2 3 5
509 170 2 0.527 4.9654411067189415 28.53775665894106 18.746816356447408 -4 -1 -1
2333 778 2 0.527 3.39089599236967 20.990388718356 22.649681608141435 1 0 -1
346 116 1 -1.054 7.943488061765678 26.208352572969865 20.9591615434996 -2 3 -2
686 229 2 0.527 3.961378329827626 26.473157176428693 26.54697950958229 -1 3 -11
1657 553 1 -1.054 13.61289235140196 23.384075168543067 27.50326434463539 -1 5 -6
572 191 2 0.527 3.3546647533177842 31.006760658072935 29.720912239523653 -1 1 -2
1928 643 2 0.527 5.405303449438854 20.140709739494852 25.360210289557077 -4 0 -2
1143 381 2 0.527 13.572370801451086 18.98578661412092 31.003397738267758 -6 -4 -4
677 226 2 0.527 4.5527487391307995 23.725104615980822 23.70576263280922 7 -4 -1
1290 430 2 0.527 14.689202842207356 20.255789850683563 27.275330358827624 -3 -7 -4
2221 741 1 -1.054 3.672389885619286 19.153204244115788 27.62807819968906 0 -7 3
1966 656 1 -1.054 9.712813840274059 29.63064746559351 27.31984473584865 1 1 2
1288 430 1 -1.054 15.080374341399146 19.769653455149253 28.001200897597837 -3 -7 -4
1469 490 2 0.527 12.541940268729153 29.46672788787298 30.89954163707814 1 -4 -2
1769 590 2 0.527 8.203110410301287 19.011521594374365 21.953146147431074 5 0 0
1299 433 2 0.527 9.257603031700322 23.403812058894836 30.99180682776774 10 -4 8
294 98 2 0.527 16.512822988071903 27.65467390836715 22.384079505430872 -3 -2 4
130 44 1 -1.054 12.31346425666062 25.997090964293847 28.156463636624597 4 2 3
313 105 1 -1.054 7.64844770537355 28.525069616534328 29.080429663218116 3 0 -6
983 328 2 0.527 8.81461983449963 17.946588893801362 18.011476018967777 1 2 5
1879 627 1 -1.054 8.406180085611913 19.921778143926797 31.578436476020887 -2 5 -1
588 196 2 0.527 15.061225296143757 29.978473353439714 21.651337546837475 0 0 3
132 44 2 0.527 12.455337057001492 25.148918132274716 27.736098690025187 4 2 3
1355 452 2 0.527 5.5970332676177765 25.792745086254204 27.966702326990703 4 9 -3
2307 769 2 0.527 12.814471805537435 24.749830445430472 18.954023220446423 -4 1 -1
1298 433 2 0.527 9.054746555624948 24.65386272525348 30.162279675772034 10 -4 8
1138 380 1 -1.054 15.190766124429492 21.30441959611995 19.967348061185877 -3 -6 0
919 307 1 -1.054 13.950145174900257 30.885983850322702 31.357269427297606 4 -1 3
2208 736 2 0.527 10.213980873011845 23.00532702467249 23.028559294373352 4 7 -1
2225 742 2 0.527 5.740565648060284 27.92727457003064 26.26265258757662 -4 -4 -5
1711 571 1 -1.054 8.84725299308019 20.747354701768483 21.696158988066248 -3 -1 -1
2231 744 2 0.527 14.717871474570382 28.872520608952858 27.696168027861443 0 2 -2
2062 688 1 -1.054 9.680813069013366 20.769032626633518 29.234562219766627 -1 5 1
341 114 2 0.527 10.79457444905886 31.62413903064911 20.87140391587367 0 2 -1
1643 548 2 0.527 4.09608934546231 29.13871421919544 28.204075357830686 2 2 3
348 116 2 0.527 7.098170523186233 25.76835078830418 20.86933698336118 -2 3 -2
1567 523 1 -1.054 14.078687581980228 25.608843207838994 30.333439670904173 -4 -8 -4
1306 436 1 -1.054 9.565121703762241 25.41970816444261 27.167392850303703 -3 -3 -5
2232 744 2 0.527 15.791907223122259 29.905530460285405 27.963062091877752 0 2 -2
1393 465 1 -1.054 17.34337944834263 21.023278796185703 29.26671369921574 4 3 -2
2206 736 1 -1.054 10.119503703332574 22.295743316610473 23.664009249918667 4 7 -1
1677 559 2 0.527 6.573866104259709 29.74399729036415 24.98176058537051 1 -2 2
1453 485 1 -1.054 7.476980763639615 26.574938862592568 24.063564269513293 1 6 -6
1733 578 2 0.527 16.415842597274192 28.206998850263734 29.17103278190412 2 0 0
1198 400 1 -1.054 4.171217667553159 19.849582457847838 31.63126122724893 -1 2 6
256 86 1 -1.054 14.585195696370905 18.597924570610957 19.109944764662313 1 3 -1
2230 744 1 -1.054 15.665690235925712 29.003410736042735 27.668985834445838 0 2 -2
1644 548 2 0.527 3.9029297040874145 28.11419394435739 29.30177417855706 2 2 3
1142 381 2 0.527 12.722911130153939 19.91968577869519 31.8389487684176 -6 -4 -4
2224 742 1 -1.054 6.661827346149675 28.062710350579597 26.484386343360217 -4 -4 -5
1139 380 2 0.527 15.861913785107824 21.401709509681854 20.642868115551504 -3 -6 0
1687 563 1 -1.054 12.26645910555626 20.33472212403095 23.67785597483962 1 1 -2
109 37 1 -1.054 5.760389323174979 23.78476367034292 31.164533147901587 2 3 1
2126 709 2 0.527 16.837182498596913 22.95002506196789 23.34066785112159 2 2 -4
1595 532 2 0.527 6.07473864118432 24.82444708149779 25.491219459837733 -2 -1 -2
466 156 1 -1.054 5.49212491786372 24.92498418922683 20.880299815466103 -1 -1 -4
468 156 2 0.527 4.634344651146373 25.349504707087352 20.89536318867384 -1 -1 -4
2146 716 1 -1.054 14.127760837819155 21.212304191114317 25.815457404584446 -3 -6 0
564 188 2 0.527 6.5524919112073645 24.276712689018748 17.57115829977353 0 -2 1
1226 409 2 0.527 8.481469701254111 30.91050686315378 23.930636888463436 4 -3 -2
2148 716 2 0.527 13.876048187529001 21.961345104901177 26.355651842341594 -3 -6 0
365 122 2 0.527 11.443526943101622 28.86105771843413 27.399460385122257 3 -2 -4
347 116 2 0.527 7.868475832306331 26.987123506409553 20.407690164493516 -2 3 -2
1889 630 2 0.527 8.965758229785743 23.630000102047504 26.706885476036557 -6 1 1
842 281 2 0.527 7.107455430924827 20.789536138768682 18.93799303114613 1 10 1
1968 656 2 0.527 9.212498050337338 29.23721541267206 28.03477608668799 1 1 2
1732 578 1 -1.054 17.12849073319258 28.00154628512524 29.77613915172462 2 0 0
920 307 2 0.527 13.944345296983641 31.726041673591112 31.8160733203427 4 -1 3
1218 406 2 0.527 17.472160140958582 23.12178195093311 27.179419743038924 -8 3 1
1337 446 2 0.527 13.504849346935716 28.29756283776105 24.821027793401743 3 6 10
1470 490 2 0.527 11.81201937732294 29.042059591463918 29.643051557262133 1 -4 -2
1568 523 2 0.527 14.987031221754282 25.902570977599844 30.40320743719519 -4 -8 -4
131 44 2 0.527 12.884783986036744 25.982924749250763 28.92433396706648 4 2 3
257 86 2 0.527 14.382915837091234 18.580525412018044 18.174524086078335 1 3 -1
1220 407 2 0.527 12.933859897396916 30.283183842738733 26.747283749840438 1 -1 1
947 316 2 0.527 3.4777203877935983 19.45325585990156 20.798198979991422 -2 1 0
243 81 2 0.527 4.207772565423348 26.81362026688413 23.975263309203626 4 -3 -1
194 65 2 0.527 17.447470629229713 31.197641799780357 29.805735303032748 0 -4 3
1158 386 2 0.527 14.197381794462173 23.467316015560844 30.288597380476997 -1 3 -3
956 319 2 0.527 16.905731168048383 22.4114887231961 25.163642768889364 -5 -5 2
1824 608 2 0.527 4.36999114471271 22.20654227442991 19.979448164938102 -2 3 -2
1369 457 1 -1.054 15.776469217387575 30.608836836606283 18.669641688242077 2 -1 -3
114 38 2 0.527 13.288368392997883 31.55825432089269 22.707569531227524 1 4 -4
9 3 2 0.527 8.780973750439577 22.975480039937846 18.265602811532027 -2 3 5
2192 731 2 0.527 7.439615652035239 20.846133582744873 23.680233784398066 1 0 1
2235 745 2 0.527 11.296836182800206 26.12719398312359 24.04257919447398 -4 6 7
478 160 1 -1.054 10.706007672760656 27.60813476139953 18.59522462544942 5 4 -4
1354 452 1 -1.054 5.016033159185224 26.183604857433597 28.619311958146863 4 9 -3
2282 761 2 0.527 10.523597306528982 19.358610425018558 19.110480652706936 0 9 2
1762 588 1 -1.054 11.81944178486593 25.923833906252902 20.492054145717344 0 -1 3
610 204 1 -1.054 4.742521365107455 21.717820286487854 29.538623622698587 4 1 -2
2064 688 2 0.527 9.860492584267025 19.969026219209045 28.74066266953836 -1 5 1
795 265 2 0.527 6.233533650113079 20.07532619895203 27.077957842667143 -3 3 -5
1414 472 1 -1.054 3.674593096024509 30.248527928675596 26.008521749576754 4 2 3
838 280 1 -1.054 17.06651655956023 21.356504313254657 22.065631775329866 2 5 1
1625 542 2 0.527 8.680537376063105 30.452556114391058 29.89245726062521 5 1 -8
1626 542 2 0.527 10.171925111419313 30.213580142125615 29.78975324732298 5 1 -8
2070 690 2 0.527 4.782482867315198 31.136745604677632 19.81399983672682 2 -2 4
1855 619 1 -1.054 8.839427274175582 17.7309365811298 24.699870378704013 3 1 2
930 310 2 0.527 8.231271038010084 28.16896039938287 31.91990015278544 -3 -2 -1
892 298 1 -1.054 14.887490668129356 18.252131491263057 24.96763240012926 6 -2 2
1768 590 1 -1.054 8.091573572977964 18.065228768070043 22.044366371430442 5 0 0
845 282 2 0.527 4.715545360386748 31.194674406585534 17.980790124566408 -2 1 -3
1141 381 1 -1.054 12.664612756868879 19.24355035756851 31.163912574090816 -6 -4 -4
2075 692 2 0.527 17.16522114951867 25.15394231880012 22.973387808981986 1 -2 -5
1949 650 2 0.527 6.2182370027403335 31.483322279638784 31.756711153543264 -1 0 -4
861 287 2 0.527 15.574436514627646 19.189969439236982 30.0098310743641 1 -2 3
2214 738 2 0.527 8.224053380548801 28.492525907669624 17.992999881207073 1 1 2
1823 608 2 0.527 5.177192957328914 23.46581182919405 19.74586625605962 -2 3 -2
2213 738 2 0.527 7.575854363359025 27.148199452417796 17.73899419259831 1 1 2
2179 727 1 -1.054 6.876634307853448 17.868490401450586 26.710458553036823 -9 -1 -1
843 281 2 0.527 5.854950108203898 20.311507069027392 18.234705595351926 1 10 1
676 226 1 -1.054 5.447275774860986 24.02145355435524 23.537743200101644 7 -4 -1
571 191 1 -1.054 3.3332107174819017 31.69459522585987 30.386235543022643 -1 1 -2
430 144 1 -1.054 13.229587448778878 29.64933132240553 17.987669842152755 -7 -2 3
566 189 2 0.527 12.146943486025002 18.088129716240232 19.70734572543518 2 2 0
1770 590 2 0.527 8.155243331693988 17.90574552826613 22.986036678608283 5 0 0
860 287 2 0.527 16.071858475629128 18.841430512835316 31.39654889729754 1 -2 3
479 160 2 0.527 10.91679447414934 27.441368930784016 17.676535642918 5 4 -4
112 38 1 -1.054 13.003971543867912 31.815262824375242 23.58466518720791 1 4 -4
931 311 1 -1.054 3.1031099987584794 24.377743991350627 28.952046091945352 -1 -2 2
431 144 2 0.527 13.558496285589595 28.78697624026442 17.733909821963735 -7 -2 3
1952 651 2 0.527 5.703788131735658 17.534793267775132 29.64269982057019 1 2 6
1641 547 2 0.527 11.763242412029879 20.52865656227935 17.628179839163334 0 5 -3
1692 564 2 0.527 16.840402018444426 30.203105210730865 31.86132206838442 -5 4 -4
1649 550 2 0.527 14.919645111015582 31.931341628398087 23.76769689318763 -2 1 -7
2312 771 2 0.527 27.699746593980343 6.345047414177276 6.955460421945363 -2 0 6
2040 680 2 0.527 22.442317834492645 11.427795857075743 16.81297711883272 9 -1 2
1001 334 2 0.527 29.6566488314377 8.127325835069911 16.107830019028917 0 -2 1
1019 340 2 0.527 28.124088579019666 9.654469891482993 5.061874320991148 1 -6 -4
720 240 2 0.527 29.58873536099342 6.5632560359422705 4.058540900637815 3 7 1
1479 493 2 0.527 21.54023401542904 12.611893802406806 8.602593091683865 -1 0 1
1244 415 2 0.527 22.50340355149138 12.137249507288479 5.709873572467815 -1 0 -1
812 271 2 0.527 19.93664319881659 7.676651119071188 11.851902589560913 -2 -4 0
1408 470 1 -1.054 30.18038787027186 3.772399333371679 3.9995509960168 4 -2 -5
495 165 2 0.527 31.307822913478162 13.190434738272787 16.96913308128263 5 -1 2
471 157 2 0.527 24.74242078583558 13.306372351516425 6.5512300275483 0 0 2
1477 493 1 -1.054 21.464777105468748 11.719467864949156 8.940400442538495 -1 0 1
1577 526 2 0.527 23.923592971211864 12.570528439550655 3.0551041812035797 -1 -3 -4
1572 524 2 0.527 23.602624681950047 7.250392920966446 3.6090138099667937 1 0 2
420 140 2 0.527 22.59178658278021 14.731981503687885 7.864502537249845 0 2 -2
569 190 2 0.527 18.76731852760034 10.991270771158918 12.279208653001323 -6 -4 5
1846 616 1 -1.054 29.49686763733334 16.356174444634604 13.233933544705275 2 3 0
2072 691 2 0.527 18.80345068980064 14.083476053552573 12.939895630282582 -1 7 -4
912 304 2 0.527 26.496752668514528 17.335908453139684 9.388977746282322 0 -4 1
978 326 2 0.527 28.87679872559866 10.972802098540846 10.188149500308135 1 2 -3
582 194 2 0.527 24.24428538014795 16.931597104186558 4.015139675860031 0 -4 0
785 262 2 0.527 31.82722743791108 16.72525543777223 7.665323912890552 -3 -2 6
2104 702 1 -1.054 27.28316448511307 6.620045560771361 8.921251863482055 -3 -1 4
1848 616 2 0.527 30.408431264939736 16.116564427174698 13.066988522718662 2 3 0
2294 765 2 0.527 26.42491764908041 12.282996808150383 17.35087243825748 5 0 -1
1608 536 2 0.527 31.446287888159326 11.58526362678679 5.603172284034484 -5 2 2
440 147 2 0.527 29.92561254899499 6.167175524916387 11.04340156640159 2 -1 2
2268 756 2 0.527 25.88148939834579 5.800905314967124 12.948230791140164 -4 -3 1
288 96 2 0.527 27.346436072685986 15.658115702421904 4.4556929646515036 4 0 1
782 261 2 0.527 17.725755701539157 16.51763162886305 4.436942055840191 3 -2 5
2267 756 2 0.527 27.2094248792105 5.965937157163469 12.240243241412644 -4 -3 1
1767 589 2 0.527 17.90215151277774 9.12756921494864 5.6778814910894315 4 -1 7
176 59 2 0.527 19.203149306881215 17.296803411793793 7.338809499472243 -7 3 5
862 288 1 -1.054 26.550978788597817 12.749295092470222 7.2969241334110935 4 -5 -2
1229 410 2 0.527 28.49623043962083 15.162583791218056 10.670436040625642 -1 -5 0
1882 628 1 -1.054 31.38392456072494 16.24263730261525 16.009955749502186 8 -2 1
1919 640 2 0.527 22.778155101005385 12.591308781230353 12.581900820284687 4 -5 -2
372 124 2 0.527 24.005837692306912 17.139968949944087 6.139307919251247 -2 -7 1
699 233 2 0.527 26.369125503274965 9.651316390739442 16.820112363144524 3 3 0
1738 580 1 -1.054 18.709469725476126 11.6960101175284 10.512008939798378 -7 -6 -2
1444 482 1 -1.054 31.325071967516948 11.196394501760583 8.74347517599364 1 -6 5
172 58 1 -1.054 29.858367469778713 3.404491798623896 10.73734886468492 0 -2 0
2398 800 1 -1.054 23.73854557229815 16.035207263382237 15.683823118818061 4 -2 4
990 330 2 0.527 25.608853793262952 15.249479923481484 8.005750922522354 0 1 -7
1478 493 2 0.527 22.246427117605176 11.600174220209448 9.479866846074401 -1 0 1
813 271 2 0.527 19.637030663860745 7.109510511356045 13.223208011476538 -2 -4 0
1442 481 2 0.527 25.809351848409136 8.693387042494168 11.431713866037176 3 -14 -2
1000 334 1 -1.054 28.957914629391016 7.951152162849884 16.73788173539632 0 -2 1
378 126 2 0.527 26.335368336054184 14.241151352596702 10.047921374947917 0 -1 5
1865 622 2 0.527 24.261570980555607 4.864218350876429 8.456788924816218 -2 4 6
903 301 2 0.527 26.668822647723736 13.227031972034103 3.801373112221649 -2 -2 -3
173 58 2 0.527 29.020222643149953 3.068309122654383 11.05472236082739 0 -2 0
1323 441 2 0.527 19.642493613974427 11.424709814777362 15.919463462005275 0 -2 7
1194 398 2 0.527 25.438055033735253 9.097034353858337 9.236246309568182 2 4 3
835 279 1 -1.054 23.919185808835465 7.651727964073527 15.379671274255214 -1 -2 0
2204 735 2 0.527 27.638371499395717 9.577238728549665 11.829789980639378 4 -5 2
182 61 2 0.527 20.313105785034644 13.712671973804767 15.871719264103655 -2 0 2
568 190 1 -1.054 18.84820551013251 10.26628582150511 12.898954092614115 -6 -4 5
718 240 1 -1.054 29.67101497803286 7.267716480979911 3.4157366315357307 3 7 1
1245 415 2 0.527 21.01466189831311 11.863178505063523 5.689179130942819 -1 0 -1
2400 800 2 0.527 23.46216963302268 16.92698524160771 15.47268318601488 4 -2 4
446 149 2 0.527 27.573024815650616 14.953463995219906 17.33464978989315 1 -3 6
1912 638 1 -1.054 17.74972015735645 5.8366222644381 4.672147674555202 -8 0 0
2372 791 2 0.527 21.63515263697268 8.919566893336563 14.053312230007844 -6 -2 4
286 96 1 -1.054 26.88775507642903 14.980614450266964 4.952518215489985 4 0 1
17 6 2 0.527 31.34006587142331 14.959465413700405 5.45725418952741 -6 -6 -5
598 200 1 -1.054 18.464644710760496 16.119369501556466 9.555611349893807 -1 -2 0
2386 796 1 -1.054 21.612794785738295 7.763928066525496 17.136597610339816 -7 10 -5
936 312 2 0.527 25.46768455559253 17.490270268820147 12.145771110721224 -1 -5 -1
1609 537 1 -1.054 28.760471002631064 14.613907711728515 15.606818924577434 3 4 -1
2266 756 1 -1.054 26.815461331163593 5.611136102706261 13.037200341619897 -4 -3 1
2149 717 1 -1.054 22.573488543510724 4.193622321488899 3.9701202823768313 -5 1 -4
1708 570 1 -1.054 18.34955585900636 14.916782514536044 6.80461310425108 1 -1 4
977 326 2 0.527 29.59952975654498 11.00193608746511 8.858222443792755 1 2 -3
876 292 2 0.527 19.853032518580356 8.567047471867847 3.209997126109772 3 -3 -2
207 69 2 0.527 25.98315244360975 5.111152251171227 16.48725975075178 -3 5 0
836 279 2 0.527 24.863382571152684 7.808049828424247 15.396635209024366 -1 -2 0
789 263 2 0.527 29.9570302715691 13.886202603418973 5.8723837936919345 0 3 3
1871 624 2 0.527 25.10424727377558 10.017558095217783 3.439541445430646 -3 4 -10
1867 623 1 -1.054 22.014144377944724 5.502366979456619 11.826462336752412 3 -2 -1
864 288 2 0.527 26.49641248939802 11.794114293546187 7.267192675158931 4 -5 -2
1441 481 1 -1.054 26.24544144148984 8.323763475542133 12.199461298673087 3 -14 -2
74 25 2 0.527 31.334369478033665 9.649834942131108 9.874441321311703 -7 0 4
1686 562 2 0.527 17.547948465897022 3.6479376036154467 5.301694586739364 -1 -2 4
1081 361 1 -1.054 19.789186898867996 14.31380198318993 11.505089835656104 0 6 3
875 292 2 0.527 21.009544147565993 8.37244359417584 4.167339997595513 3 -3 -2
1681 561 1 -1.054 23.70922306970331 11.05466597421109 12.215482278840593 7 -6 2
895 299 1 -1.054 21.183349050090563 5.297553094786061 14.468020782583666 2 1 1
2026 676 1 -1.054 30.283523587152434 3.838732127717616 8.098759198607857 0 -2 0
1779 593 2 0.527 30.799930936321104 14.091445131222793 9.63356223103844 0 -4 4
1571 524 2 0.527 22.755700372488484 6.005048582273945 3.4549629128429973 1 0 2
969 323 2 0.527 19.695267008190612 5.430892812624696 6.733786799591649 3 4 4
1806 602 2 0.527 28.26240443538271 13.482753871130923 14.130837211194358 -4 -2 7
787 263 1 -1.054 29.147321044769114 13.707846572488728 6.350705603416617 0 3 3
701 234 2 0.527 20.500029826563917 15.789487207186546 3.5128092243590725 1 4 -6
896 299 2 0.527 21.029796218274786 4.366027638350743 14.310180054287727 2 1 1
2105 702 2 0.527 27.748758056167475 6.6206585418002035 9.757585463434966 -3 -1 4
2184 728 2 0.527 22.514576575031512 3.3525057742750066 7.900196638356479 1 7 4
18 6 2 0.527 31.57896354182024 14.521319246775482 4.027970945338522 -6 -6 -5
683 228 2 0.527 23.077568269639556 7.315222078201165 7.1937958717288515 1 -6 -1
2106 702 2 0.527 27.26213844699884 7.539982640532368 8.657612928239107 -3 -1 4
1791 597 2 0.527 22.43602514026614 13.473841429220203 16.21175096787062 -7 -3 1
371 124 2 0.527 22.655660382177906 16.597723701690228 5.721113771213813 -2 -7 1
2356 786 1 -1.054 21.02191999384685 17.29349892021574 5.096933040398644 1 -1 -1
1476 492 2 0.527 25.53926292640498 4.477432429373118 4.591123294281259 -5 -3 1
441 147 2 0.527 29.517381683065725 7.403189406540678 10.270412354220593 2 -1 2
529 177 1 -1.054 29.2089132435613 14.029895406422632 8.990219159646504 4 -4 5
1203 401 2 0.527 18.468926685070628 17.06503849578892 16.52409889544316 0 0 2
2338 780 1 -1.054 20.215134099794184 7.015746368670812 10.052707570650275 1 -1 3
1918 640 1 -1.054 22.393743885736136 13.445901357576462 12.777173393987598 4 -5 -2
2027 676 2 0.527 30.04928508981053 3.7977018800462203 9.025948611981205 0 -2 0
784 262 1 -1.054 31.631810016073505 16.37409838392288 6.796570675586251 -3 -2 6
738 246 2 0.527 18.31940167132501 14.659089827994164 16.957882255466806 2 2 0
418 140 1 -1.054 22.011065964065665 14.408787317764252 8.553371841921559 0 2 -2
1049 350 2 0.527 23.859536531823025 6.648358803747314 13.878254188192997 0 5 -1
470 157 2 0.527 23.978564243763643 14.429347383535271 5.882391942065222 0 0 2
599 200 2 0.527 18.387099748208023 15.700788286270566 8.698285085988413 -1 -2 0
975 325 2 0.527 21.1978488228177 10.024910129072667 8.230627914448592 -2 5 -1
1576 526 1 -1.054 24.250559347832045 13.467290688955165 3.1268137453409164 -1 -3 -4
2094 698 2 0.527 25.38950387007823 3.6998299211538774 10.607260563149564 5 1 2
1409 470 2 0.527 29.76170272493907 3.1020774166328584 4.539553770416172 4 -2 -5
160 54 1 -1.054 26.827186420787598 9.102353270150797 8.10758028002485 0 -1 -2
811 271 1 -1.054 20.076267514605604 7.83836961326761 12.784953478522716 -2 -4 0
101 34 2 0.527 19.234391786990255 3.3627782097732837 14.53886767607265 5 -3 -6
788 263 2 0.527 28.46094967022046 14.111718432647784 5.819656189644386 0 3 3
181 61 1 -1.054 19.424040960570917 13.396618123969391 16.03267131782958 -2 0 2
494 165 2 0.527 30.575713810197616 11.90744878094145 16.63768403172602 5 -1 2
1610 537 2 0.527 28.99973774576428 15.35471647557994 15.04987584663978 3 4 -1
1739 580 2 0.527 18.186173255822865 12.150447977450712 9.851797732297753 -7 -6 -2
786 262 2 0.527 31.50879443220362 17.14807537894218 6.2469732387007 -3 -2 6
1683 561 2 0.527 23.27542968689119 10.391705307743948 12.752639737404579 7 -6 2
2299 767 1 -1.054 31.351545331624497 5.859999122826987 12.978129492258574 -4 1 4
1946 649 2 0.527 29.963845076766482 8.99274276233087 3.9267156209660614 -3 -2 0
1710 570 2 0.527 17.864232786240283 15.20142738999365 6.030229076536627 1 -1 4
2039 680 2 0.527 23.820353044709243 11.432439997142188 16.18616594333803 9 -1 2
2143 715 1 -1.054 24.218018183535253 10.613641215470203 7.240965943070325 0 0 0
1410 470 2 0.527 30.566318313432546 4.381313044378436 4.629243870379783 4 -2 -5
1321 441 1 -1.054 19.801065452257927 10.578716119693723 15.500677771239765 0 -2 7
1126 376 1 -1.054 24.119041909777938 12.020786711860286 9.76751881638452 5 6 -6
493 165 1 -1.054 30.91253938588525 12.710885558800335 16.24111157284931 5 -1 2
1192 398 1 -1.054 24.787724652241852 8.857549780446217 9.896510840148162 2 4 3
1427 476 2 0.527 31.11164337732593 11.956281742611196 12.274727088235238 -5 -4 -1
161 54 2 0.527 27.285295637127344 9.904848469121879 8.357318265937062 0 -1 -2
1647 549 2 0.527 26.558120687669597 12.485962519053839 13.539356611641272 -2 -2 -2
753 251 2 0.527 23.62858120374269 9.201944442068688 5.3010050613535515 1 -3 1
967 323 1 -1.054 19.956896744873934 4.5254884559519555 6.566381148190358 3 4 4
994 332 1 -1.054 30.960254359517712 9.826707943353677 12.576189780483322 -1 0 3
698 233 2 0.527 26.632342962682564 9.145315483069876 15.417766312114878 3 3 0
385 129 1 -1.054 25.087670547415133 5.456560112586113 9.896870604909717 3 -1 1
1945 649 1 -1.054 30.144132537650044 9.805432815473932 4.399222882510735 -3 -2 0
682 228 1 -1.054 22.76033512377579 7.278704574454687 8.096160163596231 1 -6 -1
377 126 2 0.527 25.863459460861684 13.530787345810891 8.79708968703193 0 -1 5
1914 638 2 0.527 18.134616511790522 6.346191188758057 5.385187557335925 -8 0 0
547 183 1 -1.054 24.615786285447218 4.090103406270238 15.009719418634141 -5 6 -5
973 325 1 -1.054 20.856695512884553 9.130570453065381 8.232299835513913 -2 5 -1
684 228 2 0.527 22.86519390208575 6.361888719543891 8.350492651185563 1 -6 -1
1445 482 2 0.527 31.842183914336363 11.139566149806347 7.939984370605147 1 -6 5
1128 376 2 0.527 24.37464357141578 12.934886810990989 9.891294034549079 5 6 -6
1243 415 1 -1.054 21.865389336800135 11.425121947970784 5.664664086279821 -1 0 -1
736 246 1 -1.054 17.828037230112596 15.395545479595704 17.321785954063788 2 2 0
1870 624 1 -1.054 25.00724214249077 10.526016792178863 4.244706839005414 -3 4 -10
1443 481 2 0.527 25.57296196908044 7.791298405331541 12.624295548619385 3 -14 -2
162 54 2 0.527 26.933115520907382 9.051256531111362 7.157633006960875 0 -1 -2
697 233 1 -1.054 26.549762505348 9.950364749866312 15.928949148548885 3 3 0
1315 439 1 -1.054 22.863548361208622 15.52644800648084 11.188485535708713 4 1 7
633 211 2 0.527 31.510008549513206 6.196715527491686 6.1434469133725305 2 11 0
1805 602 2 0.527 29.20042632968577 12.870495319193124 13.112431928499092 -4 -2 7
439 147 1 -1.054 29.192872132331107 6.76821275142151 10.908949394047108 2 -1 2
888 296 2 0.527 19.441202663152353 7.906878250019233 5.772365956964676 5 -2 0
902 301 2 0.527 26.127282725063388 11.820152225262504 3.9403634612266427 -2 -2 -3
886 296 1 -1.054 18.894193264564365 7.76468747991975 6.544890463171814 5 -2 0
205 69 1 -1.054 26.433805490929497 5.199032867999084 17.327152844917585 -3 5 0
968 323 2 0.527 20.015748207534006 4.4650723051218835 5.612904308987217 3 4 4
498 166 2 0.527 29.248299695667562 16.446212170548282 3.2259863381224405 -3 -5 0
751 251 1 -1.054 22.777064813758898 8.76522925962636 5.321775894325913 1 -3 1
1646 549 2 0.527 26.382563553010577 11.323623097665278 14.493317768655787 -2 -2 -2
1018 340 1 -1.054 27.548886892668776 9.021701534512681 5.491966253992305 1 -6 -4
1709 570 2 0.527 19.12337987024211 14.475654692916562 6.454136224852436 1 -1 4
1426 476 1 -1.054 31.254622446483854 12.902450439917171 12.29821593041768 -5 -4 -1
1402 468 1 -1.054 28.415411379990225 3.9303213896445706 14.351678376086754 1 5 1
974 325 2 0.527 21.588984552285932 8.59381092682239 7.929192949900486 -2 5 -1
934 312 1 -1.054 25.4531144192892 16.55738099364018 11.931909984359994 -1 -5 -1
1620 540 2 0.527 28.872106915853692 10.212953024287641 17.27143035138653 0 5 -3
387 129 2 0.527 25.833625659650803 5.834273323682036 9.430914564184077 3 -1 1
935 312 2 0.527 26.375545028445565 16.303394800864005 11.90284959038756 -1 -5 -1
1474 492 1 -1.054 26.032698825595197 4.13499175714546 5.336433246592235 -5 -3 1
548 183 2 0.527 24.54273565455306 3.380021172971901 14.372005810989029 -5 6 -5
2144 715 2 0.527 23.67189557658605 11.146883788908685 6.663355396389264 0 0 0
496 166 1 -1.054 28.458229934542523 16.801005375394087 3.633593244031313 -3 -5 0
123 41 2 0.527 20.180974727030605 13.982109953659691 4.375973080574877 1 1 -3
1193 398 2 0.527 24.0236734914231 8.579909284978308 9.391166637501318 2 4 3
976 326 1 -1.054 28.724291555944458 11.028770177160908 9.244835728249498 1 2 -3
2313 771 2 0.527 29.168712496389258 6.203622636568905 6.6177741873700615 -2 0 6
1228 410 1 -1.054 27.94225295358737 15.095228011107189 11.448127485355883 -1 -5 0
530 177 2 0.527 29.044509974503075 14.270303890287254 8.078403904290681 4 -4 5
2029 677 1 -1.054 17.551149060888378 9.43855086309907 16.418650619231624 -1 7 -7
631 211 1 -1.054 30.87001616833678 5.496449832814312 6.0158947651735 2 11 0
837 279 2 0.527 23.538454502108063 8.50460273433204 15.170196017262583 -1 -2 0
1884 628 2 0.527 31.39456936718338 16.211954200527718 16.966604583355828 8 -2 1
1322 441 2 0.527 19.399095133281243 10.659981137136393 14.635780477118786 0 -2 7
1947 649 2 0.527 30.741002097772235 9.54730734094538 5.101611482252276 -3 -2 0
2253 751 2 0.527 17.621716898465937 5.483030593071973 8.933631140382891 -1 8 4
646 216 1 -1.054 31.213131740595564 8.118402412240355 14.859714996164106 -5 -1 1
2301 767 2 0.527 31.261390853561352 6.661241931180766 13.49399162511859 -4 1 4
121 41 1 -1.054 20.06571631861993 13.281281118496139 5.017678814954975 1 1 -3
988 330 1 -1.054 25.756675458728203 15.909873503720558 7.328801682411236 0 1 -7
531 177 2 0.527 28.89305637630156 13.129134673729528 9.061607665618796 4 -4 5
600 200 2 0.527 18.894187709210225 15.463600831737404 10.104876216361772 -1 -2 0
2071 691 1 -1.054 18.21712144028427 13.95829966854797 13.686072857175555 -1 7 -4
752 251 2 0.527 22.159365733410123 9.455146057552417 5.564044543837401 1 -3 1
1866 622 2 0.527 24.371337277365953 4.659376327936966 6.960832286301286 -2 4 6
2300 767 2 0.527 30.459296317516714 5.521851189689057 12.902106433784825 -4 1 4
1048 350 1 -1.054 24.158657561000524 6.2275831912774535 13.072210603936785 0 5 -1
2188 730 1 -1.054 17.774570330445485 4.582924285125804 14.312343203969045 -1 -4 4
2145 715 2 0.527 24.248265826408158 11.103807552565854 8.062582532558046 0 0 0
1091 364 2 0.527 23.593350844384204 4.031212626039932 16.618930249847857 -1 3 3
570 190 2 0.527 19.51513442288711 9.69642651724189 12.515942351354434 -6 -4 5
1082 361 2 0.527 20.731678252427077 14.243300629861459 11.656652793614771 0 6 3
1872 624 2 0.527 25.646444967924847 10.145682466817213 4.847199218346783 -3 4 -10
1050 350 2 0.527 23.357399737921522 5.910779827138188 12.655253384026706 0 5 -1
2371 791 1 -1.054 22.09368553375057 9.458483107485671 14.697942706189151 -6 -2 4
287 96 2 0.527 26.344648496964528 15.46514279929125 5.574208712439914 4 0 1
1611 537 2 0.527 29.592615207939243 14.303244386984414 15.963548257309817 3 4 -1
2205 735 2 0.527 27.87897222256066 10.834114747506609 12.638658826395856 4 -5 2
995 332 2 0.527 31.244780978349766 9.230452950407226 11.883545242109792 -1 0 3
989 330 2 0.527 25.317839433072255 16.69401936895567 7.658604394130237 0 1 -7
2373 791 2 0.527 21.41123114825474 10.012907236985905 15.076229915080354 -6 -2 4
874 292 1 -1.054 20.088831954997204 8.145721707494982 4.0365047271976575 3 -3 -2
1790 597 2 0.527 22.5423278912003 14.784904990213372 15.462279673139806 -7 -3 1
1868 623 2 0.527 21.566962683225665 5.386735850530651 12.664847381416184 3 -2 -1
1682 561 2 0.527 24.56560836782795 11.173592462806777 12.626203896020932 7 -6 2
549 183 2 0.527 24.30651753379013 4.865715719187673 14.541734225116448 -5 6 -5
2203 735 1 -1.054 28.19172642964976 10.357253275172141 11.86988087471227 4 -5 2
2340 780 2 0.527 20.624211461592886 7.575464542890095 9.39270605894835 1 -1 3
386 129 2 0.527 24.771609462398178 6.164744473298134 10.457951684799667 3 -1 1
580 194 1 -1.054 24.706843150938745 17.04431859789748 3.1847385938311468 0 -4 0
376 126 1 -1.054 25.602890982254042 14.196784609041615 9.43331564160476 0 -1 5
122 41 2 0.527 19.27698597871446 12.820828488242434 4.731113577308211 1 1 -3
2150 717 2 0.527 23.254182333463845 3.550645957732766 3.771452513242673 -5 1 -4
1864 622 1 -1.054 23.736301342355365 4.68670946839405 7.676523489471391 -2 4 6
206 69 2 0.527 26.907371465605355 4.373935494718045 17.432894502225942 -3 5 0
2183 728 2 0.527 21.085679900144406 3.341975015948338 7.400158700449624 1 7 4
2038 680 1 -1.054 23.244643767335216 11.946301131362867 16.752502655893775 9 -1 2
1645 549 1 -1.054 25.964407903479003 11.766801171627133 13.755096458433929 -2 -2 -2
1083 361 2 0.527 19.576382563192393 13.556076001206241 10.960298734872161 0 6 3
901 301 1 -1.054 26.927135394264194 12.30723811703473 3.742336633779405 -2 -2 -3
1317 439 2 0.527 23.709738059058278 15.945252391557103 11.345958388334026 4 1 7
1804 602 1 -1.054 28.272632658492018 12.955569023435384 13.331961277020987 -4 -2 7
1847 616 2 0.527 28.99311846929002 15.83264705493049 12.61072660544358 2 3 0
1826 609 2 0.527 30.627578611772428 4.4154494539911395 15.344862862563579 -1 3 4
1251 417 2 0.527 26.920486964557863 6.628882609867624 14.504364355879746 3 1 6
263 88 2 0.527 26.376905374872226 7.807570289650296 4.638668638981792 -2 -5 1
264 88 2 0.527 25.49340886979261 7.4578333961937595 3.4601046244122657 -2 -5 1
1740 580 2 0.527 19.515513287728485 11.45523349293334 10.055333824124565 -7 -6 -2
2388 796 2 0.527 21.92119072430703 7.959513491982221 16.251798255828582 -7 10 -5
1789 597 1 -1.054 22.032669356729013 13.97571839826139 15.503474564856589 -7 -3 1
16 6 1 -1.054 31.406824514480125 14.180098837108885 4.905563426406297 -6 -6 -5
261 87 2 0.527 21.073027330811215 3.30151055906633 9.543939139261813 0 1 1
1403 468 2 0.527 27.852809197504705 4.512820232616356 13.841378953868189 1 5 1
1230 410 2 0.527 28.122006967176965 14.221744650820773 11.795902008291248 -1 -5 0
259 87 1 -1.054 20.578332587059457 3.8246577249338682 10.174673551573303 0 1 1
632 211 2 0.527 31.02185222309892 4.896614339467631 6.746219831457514 2 11 0
419 140 2 0.527 22.297881258272277 14.866723669598143 9.343474748696055 0 2 -2
887 296 2 0.527 19.48623813687782 7.895575739685462 7.285554231144501 5 -2 0
863 288 2 0.527 27.379150245865695 12.955962601307366 6.86373549345052 4 -5 -2
183 61 2 0.527 19.00724390210252 13.403443611859108 15.171006951057528 -2 0 2
370 124 1 -1.054 23.595752003086957 16.452675843086112 5.614246305019383 -2 -7 1
469 157 1 -1.054 23.90112925739193 13.51168885672605 6.143425282872614 0 0 2
1127 376 2 0.527 24.05415752222608 11.667488333819676 10.654762925500119 5 6 -6
2311 771 1 -1.054 28.341035703127073 6.536931614105877 6.271238098482218 -2 0 6
1825 609 1 -1.054 31.426875357520284 4.0887521663009885 15.757931084504213 -1 3 4
2399 800 2 0.527 24.48391516524567 15.87179418289213 15.105937416021597 4 -2 4
262 88 1 -1.054 25.472338623395526 7.597187058174469 4.406871968373646 -2 -5 1
1249 417 1 -1.054 26.758826265493095 7.311613239490715 15.155499119615774 3 1 6
2339 780 2 0.527 20.91793910440837 6.434612073401086 10.343533465976547 1 -1 3
1250 417 2 0.527 27.42635180602128 7.166632887627621 15.826037747661418 3 1 6
996 332 2 0.527 30.03175083191633 9.97606736142437 12.397852185496472 -1 0 3
1777 593 1 -1.054 31.698683757030324 14.210671703788014 9.940580181930297 0 -4 4
647 216 2 0.527 30.93097499988264 8.703535727663386 14.156694159175279 -5 -1 1
1020 340 2 0.527 28.12046516563497 8.28414916112976 5.70538278102904 1 -6 -4
1920 640 2 0.527 22.694782614201802 13.64767982247212 13.663114938663963 4 -5 -2
897 299 2 0.527 21.756008485762713 5.319848972261381 15.234698903459405 2 1 1
1869 623 2 0.527 21.63328355238001 4.833778446692852 11.257106626244456 3 -2 -1
2030 677 2 0.527 18.43028997077344 9.652275382824161 16.10613720533725 -1 7 -7
1404 468 2 0.527 27.82568612669098 3.5211668437272334 14.984962204513746 1 5 1
2151 717 2 0.527 21.75791001940447 3.6928641431273226 3.952664300315889 -5 1 -4
1475 492 2 0.527 26.62476296864703 4.846698647881107 5.5796704725679795 -5 -3 1
808 270 1 -1.054 20.82739539633321 17.23612169342063 12.583628494189568 0 -3 1
1883 628 2 0.527 30.925738646170736 17.056670801105447 15.801037628792157 8 -2 1
1002 334 2 0.527 29.264904050314914 7.189715567009828 17.23002321518337 0 -2 1
1316 439 2 0.527 22.88303185982905 14.735825348719429 11.727714212627372 4 1 7
761 254 2 0.527 20.421391455575066 11.986247988302377 3.4528070726942706 1 -3 -8
809 270 2 0.527 20.987678518248988 16.63432186024894 11.85673226852869 0 -3 1
1521 507 2 0.527 18.696401067048715 6.164578751898463 17.288977765510754 2 -4 3
260 87 2 0.527 19.800462788299626 4.107706519588997 9.694013844115268 0 1 1
1090 364 1 -1.054 23.153942411339507 3.9038627026444166 17.459723193151138 -1 3 3
1578 526 2 0.527 24.101241971493316 13.704711314381072 4.042000862249177 -1 -3 -4
579 193 2 0.527 17.957086801694185 10.288237566428284 8.139647374635953 -1 -8 5
73 25 1 -1.054 31.374046651797045 8.75274715800106 10.205938931897236 -7 0 4
2251 751 1 -1.054 18.10641915647533 4.717203333848191 9.241533960206795 -1 8 4
2242 748 1 -1.054 31.980333546646012 17.017108077187594 9.577670873545095 4 -1 -1
1499 500 2 0.527 27.439704171847577 3.20258160813103 3.1005101804278428 3 2 7
2028 676 2 0.527 29.793603618699542 3.1220677293403187 7.6955205210634805 0 -2 0
1778 593 2 0.527 31.79976442281772 13.567815465498832 10.642541709419083 0 -4 4
1550 517 2 0.527 17.569977677652417 5.822863147245365 15.30806876840719 3 1 -1
1446 482 2 0.527 31.96209960432293 11.414042298694806 9.423958145462265 1 -6 5
1570 524 1 -1.054 23.11983232362507 6.73884889279105 2.9598096416840107 1 0 2
2370 790 2 0.527 29.645327675074835 11.035727039477225 2.9986936351422386 -3 0 5
230 77 2 0.527 21.74950965665892 12.597181885040815 28.175292748559297 1 -6 -1
1701 567 2 0.527 22.870033609325926 10.122617300025501 19.23285161127452 3 1 -6
1511 504 2 0.527 27.23916022905151 8.438476915748991 22.40445742994785 -10 3 -1
1079 360 2 0.527 27.795679374749337 6.471020956416042 21.3196651738143 -3 -1 -3
754 252 1 -1.054 31.016271639479235 5.198381341273676 28.23764929720231 4 3 2
664 222 1 -1.054 30.459257504982606 12.41898970037468 20.48676987816905 0 -1 4
702 234 2 0.527 20.89614082344262 15.172710206864291 31.28047361158916 1 4 -7
1593 531 2 0.527 21.10155045223882 11.956162211842503 22.0927977458095 3 2 0
655 219 1 -1.054 31.544240885695572 6.964587382159026 30.37013792184502 1 4 6
1861 621 1 -1.054 22.82232195609929 5.614758307479448 27.150023891852705 0 3 1
532 178 1 -1.054 19.932190915854726 14.93645489629002 26.670874284002508 3 2 -4
2387 796 2 0.527 21.738533418092672 8.58018587576667 17.620482692047243 -7 10 -5
1546 516 1 -1.054 22.551247155942974 14.923805945830926 30.3284240853684 1 -3 -3
617 206 2 0.527 31.194489455957445 3.974886037279141 17.84174111313608 6 2 -3
328 110 1 -1.054 23.39786392647362 4.149468080525948 23.72890118524925 3 5 -12
695 232 2 0.527 26.809343404616374 15.337466700574424 23.24533648438776 -5 -5 2
1992 664 2 0.527 17.72355168528215 13.628530306124091 27.831262253058647 -2 1 0
2067 689 2 0.527 28.352977397330033 14.756341216885101 26.948336490204305 1 1 -5
1488 496 2 0.527 29.962522320909564 3.1508688258573696 31.00713698169773 -1 -6 -4
700 234 1 -1.054 20.252613062295058 15.102976671231229 31.98562674894218 1 4 -7
2131 711 1 -1.054 24.39544234252076 15.340773127810078 18.80239758673671 9 8 4
1500 500 2 0.527 27.590681409760126 3.8325254219909324 30.82446924746444 3 2 6
1904 635 2 0.527 21.32607472594674 6.451740063715788 22.0881619910782 -2 -3 -3
2133 711 2 0.527 23.930834439979357 15.609676779082449 18.00989386264174 9 8 4
103 35 1 -1.054 30.043188443802457 5.747039449737498 24.641243378609495 -2 -2 -2
1332 444 2 0.527 25.745058578033483 5.30923861989015 31.18038179719867 4 0 0
643 215 1 -1.054 18.327715479124084 3.8895088213934077 25.268499651888877 4 0 -3
1720 574 1 -1.054 24.610607866810135 16.392992967688773 28.407274395628452 3 -6 -3
1486 496 1 -1.054 29.77245453315266 3.4127123939837634 30.106279774774592 -1 -6 -4
2376 792 2 0.527 23.438766242974744 6.866215005244476 18.24872944053156 0 2 6
1256 419 2 0.527 18.574011852080226 9.953900254856235 25.73157279325351 -2 -1 3
179 60 2 0.527 25.266337525843397 6.538280791307077 25.797599758981196 3 4 1
1377 459 2 0.527 18.463865301614206 14.691542052709677 22.679600630346744 -2 -2 -1
2374 792 1 -1.054 24.242443627365542 6.78046037651073 18.761544758225888 0 2 6
641 214 2 0.527 29.585501520243536 3.7725029104507826 21.275751037263014 -7 5 -3
688 230 1 -1.054 18.299668223503925 15.85448419097569 30.22672866580391 7 -1 4
1878 626 2 0.527 30.684802314987852 14.701863216280623 31.379645910434828 -1 -1 4
1304 435 2 0.527 17.644803643338467 5.513780587414878 27.80456587269543 -4 -1 -2
1118 373 2 0.527 18.412561602262492 8.79295892217618 29.209701744554007 4 6 2
1573 525 1 -1.054 17.53149530539011 9.130694314001499 27.577473875358685 4 -2 0
2297 766 2 0.527 23.79794523555323 3.1973140034072784 21.783618459962188 -9 4 2
2351 784 2 0.527 29.974880459659058 15.356177429682909 24.2995624319334 -1 3 -2
665 222 2 0.527 29.61890588876983 12.676788031807716 20.10784973749246 0 -1 4
2324 775 2 0.527 19.174005430260568 3.102744226345396 19.95324361613226 0 -5 2
1109 370 2 0.527 25.444870410106795 3.638548795049458 26.493566734209608 1 -5 0
2277 759 2 0.527 22.479742877819955 15.625398783438719 21.036582696439897 6 -1 9
1591 531 1 -1.054 20.19931518147096 11.637580103312807 22.119419291959545 3 2 0
310 104 1 -1.054 29.572531789267845 11.26493120145832 23.617927511366137 -2 2 -6
1007 336 2 0.527 24.408575048346783 17.000955290048893 19.543404082752527 0 4 6
2162 721 2 0.527 31.343090824124587 10.534673908621354 26.979419717833505 -4 -1 -6
456 152 2 0.527 27.59242299754161 6.308188730028574 30.038630348147425 3 -4 2
1375 459 1 -1.054 17.981943757958636 15.098064534920482 21.959376888312832 -2 -2 -1
1080 360 2 0.527 26.93867636580211 5.294827850508623 20.90252053875866 -3 -1 -3
472 158 1 -1.054 25.525467023633748 7.783837606980186 23.2494147220939 -4 1 -3
1501 501 1 -1.054 21.400980304234405 8.886780115377306 28.609708151808974 -4 4 -2
117 39 2 0.527 21.536487568366848 3.0694362814492315 26.672701856388148 2 5 0
2375 792 2 0.527 24.888561454357106 6.443956581378595 18.14063584448757 0 2 6
1160 387 2 0.527 26.220890186784573 15.771233295339163 31.181751555360062 -3 -4 -6
306 102 2 0.527 27.68273653817606 2.9591723562404226 23.971021877875508 1 3 4
1715 572 2 0.527 20.62978844826339 6.810889478504083 19.430015015542335 1 3 0
1748 583 2 0.527 18.836233201403818 17.043813456912353 28.73995349628348 2 6 -3
2228 743 2 0.527 26.48056008397643 15.785927649242783 25.746214093796073 -7 3 -2
2381 794 2 0.527 28.11123782742939 15.186508510697282 21.50959822453919 -2 2 -3
1723 575 1 -1.054 20.476680544873922 6.5282133411256575 26.046667418714254 5 3 5
490 164 1 -1.054 25.986172729422346 9.054859128547163 18.60865821646162 1 0 3
1506 502 2 0.527 19.78866682551591 11.473741726686843 20.373260955547334 1 -6 3
2397 799 2 0.527 27.78159791887005 12.13814340819487 29.981200511726772 3 3 -5
2369 790 2 0.527 28.484441406965285 11.940828690928676 31.73736797486423 -3 0 4
1670 557 2 0.527 30.63797253152737 9.140138354889048 21.209169308983824 1 2 -5
1602 534 2 0.527 20.699498052228222 16.335686037436588 19.113450416607442 -6 1 5
2276 759 2 0.527 23.32793780861916 14.915022413299763 20.00322605561691 6 -1 9
2023 675 1 -1.054 24.442352192964215 3.0187390104005076 29.429786208023838 -1 0 0
1504 502 1 -1.054 19.718227302052895 11.470312263380587 19.418662442728248 1 -6 3
1117 373 1 -1.054 18.968931819323476 8.455827402536778 29.911859955055238 4 6 2
731 244 2 0.527 22.759396135304293 9.268792573420539 31.547375838647472 2 3 4
1072 358 1 -1.054 23.78645036227422 9.857834169564644 23.592850858545702 2 0 -2
1490 497 2 0.527 31.72612677420021 13.684919964501107 19.156355021256918 -1 -5 6
1905 635 2 0.527 20.64474735349853 5.515667691055384 23.063588092026908 -2 -3 -3
1548 516 2 0.527 23.135694802652026 14.506568542803889 30.961326579417616 1 -3 -3
331 111 1 -1.054 19.75699858457604 14.398559599704837 19.854206333888335 -5 -2 3
1616 539 2 0.527 27.890707999872983 11.853820712950977 23.032494920406016 -4 7 1
1725 575 2 0.527 20.725303323829106 7.436909220704092 25.87728629651742 5 3 5
213 71 2 0.527 21.736576418984786 4.564885758237574 30.184202351112287 4 -1 1
1615 539 1 -1.054 27.025661861456534 12.236106008413424 22.88489824384052 -4 7 1
22 8 1 -1.054 19.96340055583827 3.645265285502571 22.853441736485806 -1 4 -1
2240 747 2 0.527 20.80826893974577 10.356156405074033 25.711150037350027 -1 1 -2
1714 572 1 -1.054 20.890458173073522 7.310703085691672 20.203623093276452 1 3 0
1735 579 1 -1.054 19.49198480790577 12.63723525362533 27.865809716017903 0 0 -2
2227 743 1 -1.054 26.514722588756783 16.548223159760482 26.324115736057493 -7 3 -2
1021 341 1 -1.054 25.678304943494695 9.649970080555063 30.362489989604605 4 4 0
2279 760 2 0.527 17.89812327714738 8.421183834314448 20.183313326973412 1 2 1
755 252 2 0.527 30.302113237381985 5.553027945894831 27.70808793138892 4 3 2
1462 488 1 -1.054 29.790433643262286 6.1112003983628815 18.920397133186 4 -4 -1
1269 423 2 0.527 24.317492901588246 16.27088376172236 23.592350295433338 5 -3 6
1617 539 2 0.527 26.47067225934821 11.84069574461279 23.557110329589598 -4 7 1
2350 784 1 -1.054 29.64883802513966 14.469726157321386 24.144216711997288 -1 3 -2
1432 478 1 -1.054 30.892490306813894 16.310741416708435 20.517585862342692 0 2 2
1189 397 1 -1.054 30.893323934480367 9.108985532371934 19.366211363438413 6 -1 3
1498 500 1 -1.054 26.933122398880663 3.571365304008557 31.469173300429873 3 2 6
2380 794 1 -1.054 28.587892390609575 15.791439554414302 22.07800862956695 -2 2 -3
2352 784 2 0.527 29.37970338535268 14.1581413961736 25.00834243067933 -1 3 -2
2229 743 2 0.527 25.842310861519156 16.37936506213737 26.984101332677994 -7 3 -2
302 101 2 0.527 30.620558928393013 16.82362410670993 25.993826527259312 5 -3 1
1565 522 2 0.527 31.40165373274566 13.537557903887029 23.49202365968083 4 2 5
534 178 2 0.527 20.877829909346335 15.074799424086127 26.617401518561845 3 2 -4
380 127 2 0.527 17.621982021192633 7.415242032246485 24.867291374917578 -1 4 1
2275 759 1 -1.054 22.4930335319317 14.855769425970676 20.46761358695558 6 -1 9
1376 459 2 0.527 18.559672981776185 15.005813447947016 21.201781693885554 -2 -2 -1
403 135 1 -1.054 28.30282039618873 9.705626891617856 26.297096430646306 1 -1 -3
694 232 1 -1.054 26.37031321315175 14.855970254996402 23.94651084902236 -5 -5 2
1417 473 1 -1.054 28.546618325416578 9.10739877400749 29.331494617513062 2 7 -2
492 164 2 0.527 25.832333056437328 9.438059174439543 19.472210509988567 1 0 3
1463 488 2 0.527 30.04985174549045 5.192895310456445 18.845233301337423 4 -4 -1
1387 463 1 -1.054 22.271073546305832 12.963798227743114 25.027078259837797 1 -1 -1
1812 604 2 0.527 19.099993399667667 3.6913300046407835 27.10012713025189 3 2 -3
2241 747 2 0.527 21.409434737958083 10.077007557364583 27.0722417073838 -1 1 -2
1303 435 1 -1.054 17.78073806326967 5.478632591852575 28.751412264932096 -4 -1 -2
1331 444 2 0.527 24.907679194590894 6.512013630151832 30.80087815038732 4 0 0
1419 473 2 0.527 29.0948613030277 9.756499047929799 29.77232369562668 2 7 -2
2163 721 2 0.527 31.220607749458328 11.96265079989672 26.491797855439575 -4 -1 -6
473 158 2 0.527 24.753717385993486 8.231632342414638 23.595989423764987 -4 1 -3
2034 678 2 0.527 24.517473244815633 4.869471052467049 21.31823025083385 2 -4 -8
332 111 2 0.527 19.49479370658628 13.518441663548211 19.584256662060824 -5 -2 3
311 104 2 0.527 30.140350886593534 10.583922914215478 23.257315640360726 -2 2 -6
91 31 1 -1.054 27.54223070648426 13.19062277792169 20.139580573127933 3 1 0
1452 484 2 0.527 19.925741321723958 8.209396446198822 21.492791650815008 -4 3 -3
1276 426 1 -1.054 23.46429355531892 12.839318943341985 22.37526839911454 -2 1 -3
1716 572 2 0.527 21.14837788928795 8.166385757260857 19.860816497638677 1 3 0
719 240 2 0.527 29.226620044657793 6.934412767137561 31.728484103218758 3 7 0
2201 734 2 0.527 26.548311301237067 10.58984133653183 25.341819543842643 0 -1 0
178 60 1 -1.054 25.27948062860146 5.717946867488138 25.30453697492561 3 4 1
964 322 1 -1.054 25.492949770719964 12.860815942440752 27.553308640804268 -3 -3 -3
1165 389 1 -1.054 24.05128141306132 11.370828605619131 20.024546013271323 -3 -2 3
1519 507 1 -1.054 19.383040236833505 6.27030095122179 17.94744630887995 2 -4 3
2001 667 2 0.527 21.448695815483102 7.682756275214406 23.97286166462292 -2 2 0
1078 360 1 -1.054 27.845584367612776 5.546438690504305 21.076995568754775 -3 -1 -3
1788 596 2 0.527 17.80353573170912 12.671275905484611 31.242754323636174 0 1 7
2384 795 2 0.527 31.57508608951579 17.089062328652762 24.060512506996385 -3 0 5
1503 501 2 0.527 22.192460333558618 8.494542276919674 28.241007001613006 -4 4 -2
1497 499 2 0.527 19.524415643240665 14.1214154793504 24.90553690901154 -3 0 1
696 232 2 0.527 26.37219060482766 13.945768339186117 23.650266408692485 -5 -5 2
149 50 2 0.527 28.268701136908135 17.029607290401245 18.76688132244003 1 -5 2
1721 574 2 0.527 25.146726135956794 15.969069551216425 29.077422015005308 3 -6 -3
1267 423 1 -1.054 23.369774813676585 16.27764433124908 23.45812528175788 5 -3 6
573 191 2 0.527 31.753454943844716 3.2113770530221974 30.080176832378488 -2 2 -2
1161 387 2 0.527 26.684318327348947 14.570082172492521 30.385281072715713 -3 -4 -6
1487 496 2 0.527 30.049361383279884 4.327754642921457 30.058826281176646 -1 -6 -4
1022 341 2 0.527 26.521339095538238 9.887559335395848 29.976385658661943 4 4 0
333 111 2 0.527 20.500444252284794 14.258227116961647 20.440573750916183 -5 -2 3
1166 389 2 0.527 24.908142335926634 11.646789395393291 19.69917474315552 -3 -2 3
1167 389 2 0.527 23.900624314339897 11.916371485891842 20.79650244577885 -3 -2 3
1862 621 2 0.527 22.809285784642626 4.72009481178736 26.809966361860848 0 3 1
369 123 2 0.527 21.987887571657556 3.293847651612836 18.75254397694246 -3 1 2
756 252 2 0.527 31.27732397628343 5.923683682928223 28.80511720891998 4 3 2
1277 426 2 0.527 23.34757300958343 13.737279728382633 22.06498714741725 -2 1 -3
2296 766 1 -1.054 24.03453066624843 3.0598421375907296 20.866361572322514 -9 4 2
2382 794 2 0.527 28.878695979117694 15.25148439781822 22.81293265883995 -2 2 -3
1786 596 1 -1.054 17.886381830484815 12.528760592634336 30.299855780714676 0 1 7
1903 635 1 -1.054 21.404768295741363 6.090136492389962 22.970931485835372 -2 -3 -3
1330 444 1 -1.054 25.772586137273017 6.121712507373064 30.67505003961835 4 0 0
1491 497 2 0.527 31.75611949817054 15.184454741165135 18.950464168112426 -1 -5 6
1451 484 2 0.527 19.854904088902117 8.554240094720614 22.965190826065108 -4 3 -3
1736 579 2 0.527 19.615712540571344 11.936733415954452 27.22532534039332 0 0 -2
1489 497 1 -1.054 31.71341959937687 14.355624630592322 18.47354786885714 -1 -5 6
2159 720 2 0.527 31.97653254643996 12.75231930883848 30.44050479392381 2 3 6
2348 783 2 0.527 31.968448335768475 8.426465685274596 28.811040516276165 -7 3 2
1601 534 2 0.527 19.961837321253817 16.966862263729336 17.9518276235547 -6 1 5
454 152 1 -1.054 28.533517658022486 6.466528725536743 29.964463229390496 3 -4 2
690 230 2 0.527 18.84466651532237 15.628174070329708 30.980381308686702 7 -1 4
511 171 1 -1.054 22.80027108388925 15.462035093038471 26.283492985233206 1 9 1
1510 504 1 -1.054 27.860962279098715 8.295223397510496 21.690964326505714 -10 3 -1
1418 473 2 0.527 28.670629599925938 8.30474030801723 29.8380441290144 2 7 -2
491 164 2 0.527 25.675781040696965 8.152832058309349 18.687623452168427 1 0 3
1811 604 2 0.527 19.59695199350114 3.2502596835351993 28.460415325607336 3 2 -3
858 286 2 0.527 17.77676726305463 8.032790790908045 31.098425859063916 4 1 -2
1145 382 2 0.527 28.380880838195317 5.260054876626979 24.092033094371054 0 6 -1
965 322 2 0.527 24.564899091008318 12.830805510041355 27.7858014923233 -3 -3 -3
1700 567 2 0.527 21.457752470615763 10.667525176496401 19.212058797077955 3 1 -6
644 215 2 0.527 18.721527387320215 3.883976830425208 24.396081708009202 4 0 -3
666 222 2 0.527 30.247612268401774 11.684069425968895 21.062382174519946 0 -1 4
525 175 2 0.527 30.73851165755897 17.12588264568108 30.077010114250697 3 -5 2
817 273 1 -1.054 23.524998252526352 8.25244035321331 26.672956056662567 1 1 -5
405 135 2 0.527 28.396116940208152 9.419571192675818 27.20577650932321 1 -1 -3
2160 720 2 0.527 30.77484497431281 12.28697541717986 29.645963003417243 2 3 6
1592 531 2 0.527 20.20047639147993 10.970606728794461 22.80598811851752 3 2 0
104 35 2 0.527 30.331853242750782 6.534898743514689 24.18061098448922 -2 -2 -2
1699 567 1 -1.054 21.972759011195816 9.890943967887312 18.993148614713 3 1 -6
212 71 2 0.527 22.463777360009544 5.795039408138635 30.68399795603643 4 -1 1
92 31 2 0.527 27.01095891760246 13.014785351999802 20.91615182149796 3 1 0
1268 423 2 0.527 23.129506566946873 17.203656999010597 23.489799092028765 5 -3 6
2032 678 1 -1.054 24.997398334738463 5.69532261281239 21.255998320548247 2 -4 -8
1073 358 2 0.527 24.097997319402765 10.443925598074395 22.90316465908545 2 0 -2
1374 458 2 0.527 18.222939399855054 6.211678561236452 19.577875896850976 -1 2 0
2000 667 2 0.527 22.2830597126463 8.933786135359936 23.797772760580777 -2 2 0
2323 775 1 -1.054 18.376782031189673 3.0623517749440183 20.4814811965289 0 -5 2
1389 463 2 0.527 21.979419055952903 12.243433665584377 25.585866135521528 1 -1 -1
379 127 1 -1.054 17.878230024453607 7.1804343881208945 25.759162486804875 -1 4 1
2278 760 1 -1.054 18.07403164560832 9.084675989698983 19.516180641839465 1 2 1
116 39 2 0.527 22.362735231845324 3.0782058561410386 25.40418587559995 2 5 0
1505 502 2 0.527 19.0300713960689 10.831962180924421 19.23109332775676 1 -6 3
2280 760 2 0.527 18.445901066881987 8.594811963712022 18.78271080363462 1 2 1
1724 575 2 0.527 21.277548908818545 6.116881804315909 26.371702159029812 5 3 5
1495 499 1 -1.054 19.60966390761154 13.8191644161003 24.001319704617416 -3 0 1
1190 397 2 0.527 30.57181331044837 8.244641173238067 19.109752201321648 6 -1 3
1159 387 1 -1.054 26.687422292719898 15.527272549667313 30.38233775781153 -3 -4 -6
618 206 2 0.527 31.465531425276996 2.983745756464411 18.95352901159034 6 2 -3
2158 720 1 -1.054 31.42482559110231 12.98796614208532 29.694635142440994 2 3 6
1305 435 2 0.527 18.355453132998207 6.220738769095795 28.93906196557686 -4 -1 -2
689 230 2 0.527 17.78923686952093 15.063479654184443 30.053513763477405 7 -1 4
1257 419 2 0.527 18.19832312295504 10.786125352446964 24.524032550306455 -2 -1 3
1388 463 2 0.527 22.610304432636504 13.618655870783686 25.637254605369737 1 -1 -1
1999 667 1 -1.054 21.501667743172447 8.600680859547852 24.23902001969204 -2 2 0
1372 458 1 -1.054 17.55669420245927 6.162792975072473 20.2634117029557 -1 2 0
93 31 2 0.527 27.1905572633251 12.60361375016985 19.470269066926836 3 1 0
404 135 2 0.527 29.11761496071958 10.1706121662643 26.107016677817946 1 -1 -3
2200 734 1 -1.054 25.70074204738575 11.007259701240299 25.188131322104564 0 -1 0
1737 579 2 0.527 19.01507276438843 12.223250747170052 28.58511737354129 0 0 -2
732 244 2 0.527 21.898439751883178 10.421191917316143 31.075545536815675 2 3 4
616 206 1 -1.054 30.782002825276663 3.54855478150348 18.59295868814056 6 2 -3
474 158 2 0.527 25.174888179777394 7.016012114257018 22.798005961222884 -4 1 -3
455 152 2 0.527 28.716077443155847 6.39346442353964 29.02767878809643 3 -4 2
513 171 2 0.527 23.50630205173499 15.918922564804014 26.74066457907769 1 9 1
2295 765 2 0.527 25.00567298444229 12.546424047896428 17.80720841733554 5 0 -1
1255 419 1 -1.054 18.91472953154042 10.622574921079622 25.137420345646763 -2 -1 3
1191 397 2 0.527 31.84564167518963 9.014551222543199 19.386328152547335 6 -1 3
1092 364 2 0.527 23.83945645039934 3.575367772480986 18.04143912468857 -1 3 3
818 273 2 0.527 23.29907137617679 7.338255119389263 26.844577365115345 1 1 -5
2239 747 1 -1.054 21.484146888731622 10.660226689188514 26.316923943478443 -1 1 -2
105 35 2 0.527 30.761065676796743 5.124607761236286 24.525213835635594 -2 -2 -2
1863 621 2 0.527 22.666865363037406 5.516727490334471 28.089414674663708 0 3 1
1433 478 2 0.527 30.615639817922826 16.04386364770097 21.394148381596757 0 2 2
1669 557 1 -1.054 30.696116866937672 9.298545249338808 22.151378390388697 1 2 -5
1450 484 1 -1.054 19.307246176154358 8.424596157628013 22.190921015458784 -4 3 -3
220 74 1 -1.054 28.783691199222826 6.491190030987196 26.965090349918885 0 3 0
2066 689 2 0.527 27.881738963818904 13.36244944838937 26.59211341513061 1 1 -5
222 74 2 0.527 28.306295322902066 7.224368047008627 26.576792877299216 0 3 0
447 149 2 0.527 27.33989787580027 14.792887339391832 18.821849224113684 1 -3 6
1119 373 2 0.527 19.862395808319224 8.613953245415958 29.606983282910505 4 6 2
2024 675 2 0.527 23.8996452494746 3.8069200577920568 29.408068634576466 -1 0 0
2293 765 1 -1.054 25.878835809447974 12.331846438560875 18.135498797164182 5 0 -1
533 178 2 0.527 19.83617622474818 14.124976983543984 27.169388706297763 3 2 -4
445 149 1 -1.054 27.07790028770844 15.320195674820578 18.06717379196747 1 -3 6
1600 534 1 -1.054 20.60549094194776 17.158708029003364 18.633836911937838 -6 1 5
1618 540 1 -1.054 29.358580733027615 10.893079973693204 17.73726541495509 0 5 -3
2368 790 1 -1.054 29.212458152626883 11.45640089174355 31.34806998646719 -3 0 4
2317 773 1 -1.054 20.270039519979292 3.384185318056731 30.270355274379842 -6 4 -3
1121 374 2 0.527 17.9488039794586 10.179845100246977 22.449977707368372 -1 -5 2
1876 626 1 -1.054 31.09689383960987 15.562598206131993 31.454127306933003 -1 -1 4
1074 358 2 0.527 24.100339029300706 10.255007191671961 24.4052296060306 2 0 -2
23 8 2 0.527 19.31645729047208 3.453410855663677 22.17455443515237 -1 4 -1
512 171 2 0.527 22.79402935996572 15.846162173314426 25.406772258661125 1 9 1
1991 664 2 0.527 17.699465479692204 15.09026659009653 27.438017615203066 -2 1 0
1278 426 2 0.527 23.25262751424582 12.878268171582151 23.307959055015484 -2 1 -3
819 273 2 0.527 22.946669688513648 8.512001043713438 25.955741897526018 1 1 -5
279 93 2 0.527 18.528606804328035 16.8691189786901 22.52483141612461 0 -7 -2
229 77 1 -1.054 22.654883627683205 12.83051106695157 28.38044460458108 1 -6 -1
221 74 2 0.527 29.243510108585692 6.087450939536352 26.229024350229384 0 3 0
329 110 2 0.527 22.810659432042698 4.884884277568187 23.554013494532146 3 5 -12
2161 721 1 -1.054 30.829025964498708 11.09432876385179 26.397392575077884 -4 -1 -6
2395 799 1 -1.054 26.89883745734862 12.492959698868692 29.875983731611036 3 3 -5
1502 501 2 0.527 21.69698443491326 9.314320114407582 29.41333919290655 -4 4 -2
1146 382 2 0.527 27.38710382027262 5.11304802626812 22.959473513199228 0 6 -1
966 322 2 0.527 25.944890644204044 12.520270910259907 28.325325691458854 -3 -3 -3
2383 795 1 -1.054 30.625315680998945 17.005040030274234 24.144820450274718 -3 0 5
1464 488 2 0.527 29.102360735705897 6.112508999810417 19.585818576761366 4 -4 -1
231 77 2 0.527 22.581123259751003 13.553334201733227 29.003596204540294 1 -6 -1
2202 734 2 0.527 25.536600768875903 11.516521553363123 25.981820066247828 0 -1 0
312 104 2 0.527 29.8994737884647 11.404214237905169 24.50671368082466 -2 2 -6
211 71 1 -1.054 22.37764986878606 5.224791122190955 29.920040653759717 4 -1 1
1144 382 1 -1.054 27.525219423004902 4.887417792593766 23.87939026800741 0 6 -1
180 60 2 0.527 26.164668029746537 5.669051045312815 24.943588001221947 3 4 1
762 254 2 0.527 19.88111437179581 11.798384426509267 31.14339724820069 1 -3 -9
330 110 2 0.527 24.217054954506615 4.557798701501352 24.008943984905365 3 5 -12
1512 504 2 0.527 28.642122398240854 8.783042028016707 21.951835112869254 -10 3 -1
640 214 1 -1.054 30.121190493574847 3.0003261236189847 21.45744335815618 -7 5 -3
1877 626 2 0.527 31.995076764060816 15.425522606065421 31.15294750620827 -1 -1 4
1023 341 2 0.527 25.029463825280445 9.953950004813425 29.727798546586442 4 4 0
1749 583 2 0.527 19.108768807419736 16.506211632037644 27.351211688352652 2 6 -3
1434 478 2 0.527 30.173694375640295 16.85361929356183 20.19378382502194 0 2 2
1722 574 2 0.527 24.05040308319333 16.99697609489767 28.894723569264603 3 -6 -3
2033 678 2 0.527 24.66991710339787 6.103387107735072 20.454455301909174 2 -4 -8
381 127 2 0.527 18.73300660461197 6.761032521772879 25.66072028577005 -1 4 1
2132 711 2 0.527 25.321899221581397 15.436370519639842 18.581557058319692 9 8 4
730 244 1 -1.054 22.610535172709664 9.845037758033056 30.79770033342873 2 3 4
1747 583 1 -1.054 18.70562026275243 17.241637021773833 27.812571189151893 2 6 -3
301 101 1 -1.054 31.006773467971172 16.988495874719256 26.85399347587736 5 -3 1
1496 499 2 0.527 20.497967725028715 13.46645768245186 23.948917057731084 -3 0 1
657 219 2 0.527 30.807145717760854 7.447754025527972 30.743598154637784 1 4 6
760 254 1 -1.054 20.458444522794593 11.396133538824206 31.792331726355346 1 -3 -9
2396 799 2 0.527 26.489260936020287 12.375557865740948 30.733127480711847 3 3 -5
1547 516 2 0.527 22.968126707361513 15.763206763377903 30.13387496193652 1 -3 -3
2065 689 1 -1.054 28.673997231509365 13.879534072960988 26.7376539082878 1 1 -5
1619 540 2 0.527 29.820144789588902 10.424414457004477 18.43263803518379 0 5 -3
2318 773 2 0.527 19.331667685278564 3.2825251207724615 30.42958852721046 -6 4 -3
1575 525 2 0.527 17.545089074913562 8.49358723259783 26.863231942516872 4 -2 0
1671 557 2 0.527 31.6326128358421 9.255444533586594 22.34463806614724 1 2 -5
2298 766 2 0.527 23.19599282763528 2.9848562889906702 20.410880301339084 -9 4 2
1810 604 1 -1.054 19.525424393606738 2.96170200028498 27.550552704464575 3 2 -3
1520 507 2 0.527 20.000461922597214 6.88661589995935 17.553519764291597 2 -4 3
323 108 2 0.527 23.955741895005954 23.124511746057554 12.262323665046928 7 2 3
1012 338 1 -1.054 24.864629152361868 28.694348319483225 12.274183992188282 1 4 2
954 318 2 0.527 27.7031108609392 21.41867907352976 9.25271969699063 -8 -2 -3
1235 412 2 0.527 24.483761831194226 20.15754481062615 11.037962952699532 -2 -3 6
2175 725 2 0.527 25.20472401604559 25.28619645890574 4.484834158278105 -1 -4 2
991 331 1 -1.054 28.15966519690428 26.878419000092872 3.3898778095689117 -4 -4 0
1406 469 2 0.527 22.818442975995275 20.13425294172515 5.377304338191596 1 4 3
1182 394 2 0.527 21.002867867394276 29.45639295768115 15.858142020633286 1 -1 4
1213 405 1 -1.054 30.15206842899364 22.854774799950988 11.101563393548586 2 -1 2
1133 378 2 0.527 22.351809112648525 21.005642641619332 14.938232737594811 -3 1 0
1449 483 2 0.527 21.36063545269501 19.930189031188174 17.488924161404405 -1 -5 5
192 64 2 0.527 28.708426802658877 22.640458064993368 13.677393801514667 -2 -3 -2
992 331 2 0.527 27.41791968686982 26.285875092747442 3.2676606034228355 -4 -4 0
2052 684 2 0.527 31.38154569791916 22.519526319980304 4.315482533385828 -3 -5 -1
2355 785 2 0.527 25.883332964208694 31.104537491542118 15.7882886612159 -2 5 -1
208 70 1 -1.054 22.29724992719673 27.333866738602556 4.480639741930118 1 -1 4
2365 789 1 -1.054 22.11019853295776 25.514367891295798 16.009614423222537 0 -1 -1
1413 471 2 0.527 19.423157851454377 26.59844425184007 7.615147499299045 3 2 0
1264 422 1 -1.054 24.430149888210515 30.054498912167965 9.0229067896819 4 -3 2
1177 393 1 -1.054 22.459922643538793 29.620666570391894 11.75145582429528 2 2 -6
1515 505 2 0.527 26.924300330288613 27.46072802459208 7.646080147426676 -5 -3 4
1215 405 2 0.527 29.622647443974937 23.050008358119694 11.874757047967039 2 -1 2
2336 779 2 0.527 28.276561765257856 27.499963382563273 15.556313223317563 1 -4 -1
1339 447 1 -1.054 27.417904329488934 28.57777245155779 11.546386757489593 -2 -4 0
324 108 2 0.527 24.40391193079577 23.928633830353395 11.060480772540462 7 2 3
307 103 1 -1.054 21.58056716453154 19.60026612268168 12.062450835966741 -11 3 -5
1840 614 1 -1.054 27.740790786898867 31.306787119283108 12.177297045627082 -2 -2 1
1360 454 1 -1.054 23.358846800739727 23.30632304140776 5.734445014099553 -1 4 -3
2156 719 2 0.527 29.158574487616605 25.331170717267106 5.948212617503899 -4 -8 -1
1998 666 2 0.527 20.1157567014888 21.217158615847097 14.779291051484428 2 1 0
1494 498 2 0.527 28.814982177215807 24.405362922316215 8.548067413862643 -5 2 1
1314 438 2 0.527 31.281048223768384 30.499845017056185 13.3037988665849 -2 1 4
1411 471 1 -1.054 18.93261381766226 25.78298493761485 7.512072308424771 3 2 0
2358 786 2 0.527 20.254507671546545 17.63790729291388 5.55376231203492 1 -1 -1
1039 347 1 -1.054 19.5725429435912 23.934623736207364 11.92525458084654 8 -3 4
2139 713 2 0.527 31.213791221152178 25.8921406782427 11.202664398266672 -2 -1 2
1209 403 2 0.527 23.871493882533482 21.068418734475685 16.11242960170736 1 3 -2
1207 403 1 -1.054 24.176909318812196 21.67764180574139 16.78459061056572 1 3 -2
281 94 2 0.527 19.87879279712965 19.66115867567873 8.147692483773232 -3 1 2
2367 789 2 0.527 21.76495706475244 26.388870178594033 15.829933271647137 0 -1 -1
1813 605 1 -1.054 26.228563059951657 19.90442988210791 4.526782202585063 1 -6 -2
2379 793 2 0.527 20.87899842798783 17.829914941508967 15.960387096824473 -4 2 3
651 217 2 0.527 20.21428292827647 31.69234368525855 11.494055868360986 0 2 -4
2359 787 1 -1.054 17.74071130810395 19.827821829493686 14.575580838145306 -1 4 1
1674 558 2 0.527 30.858790073594445 18.64140063236745 4.388340247214064 -4 -1 -4
1522 508 1 -1.054 18.811469559546875 22.48285615784289 7.994457033819583 1 2 -1
712 238 1 -1.054 25.309337622197898 22.112959462372398 8.695274952108644 3 -1 0
595 199 1 -1.054 18.561982399242126 25.416533997799412 4.44838656734858 -1 -4 5
1352 451 2 0.527 25.461317734940568 26.196206532987695 10.089976710534598 -3 1 -2
1814 605 2 0.527 26.93262726773723 20.47915274995319 4.226417876486157 1 -6 -2
1340 447 2 0.527 27.8224807686384 28.054178821395716 12.238050673829159 -2 -4 0
1353 451 2 0.527 26.92433910504004 26.236919594935934 10.477023292578867 -3 1 -2
1103 368 2 0.527 19.180889369565215 29.90408997902472 7.076413587812956 4 5 -4
1844 615 2 0.527 30.80463815172232 18.944562478576174 15.041643540225135 -4 -1 -1
1412 471 2 0.527 19.35385427523711 25.341070608324785 6.774847791075201 3 2 0
2327 776 2 0.527 19.095354082933277 27.213047705448083 4.34208064649387 -1 0 -2
1234 412 1 -1.054 23.856285111162624 20.539725125049785 10.424413433523362 -2 -3 6
870 290 2 0.527 27.776438588139317 22.39238481516141 3.210598419312136 1 0 9
1921 641 1 -1.054 20.158736167648556 31.549795149159582 4.431613826467352 -3 -2 2
2087 696 2 0.527 19.27934804757015 27.961923217640603 16.17695543884158 1 2 5
910 304 1 -1.054 27.244900629415742 17.874837676582786 9.131953030432035 0 -4 1
2009 670 2 0.527 22.342973721098737 22.601383469125974 10.506078784391734 -1 -2 -5
1201 401 1 -1.054 19.018699194425157 17.825365379309098 16.3346663071209 0 0 2
2337 779 2 0.527 26.902913056049197 27.829994856577784 16.100430192551467 1 -4 -1
1466 489 2 0.527 19.760358592121296 29.14398898233678 9.324942218166083 1 -5 3
190 64 1 -1.054 29.341737433482866 23.353870657143748 13.598707563781648 -2 -3 -2
1253 418 2 0.527 22.65313388909244 25.558387232109055 6.800539895027124 3 1 2
2051 684 2 0.527 31.929788971617057 21.803377678663722 3.099564968311751 -3 -5 -1
203 68 2 0.527 31.08993283495182 30.686388790291684 15.41263089916771 -4 -2 0
53 18 2 0.527 25.06378631553913 19.70275124678142 17.40556722570418 1 -3 3
209 70 2 0.527 21.55172323960927 27.908448377685996 4.306635779248396 1 -1 4
952 318 1 -1.054 28.478499520746773 21.96107179502378 9.1084488476982 -8 -2 -3
1097 366 2 0.527 26.062052792225984 28.44355541771733 4.277591796482963 -2 -5 0
1285 429 1 -1.054 31.869081569474993 25.47826863219439 7.279112303065908 -8 -4 -3
1223 408 2 0.527 29.381842916218883 19.535745152180752 11.0011609574335 -5 -2 4
596 199 2 0.527 19.427804581810094 25.02975171003009 4.578703566287952 -1 -4 5
126 42 2 0.527 24.087284472084775 27.538479695408714 7.613292284333777 3 -5 7
1380 460 2 0.527 31.457151042190574 24.800184800078224 16.56848426241008 -4 7 -1
1922 641 2 0.527 20.48630594920098 30.980328605970335 3.735454551487147 -3 -2 2
1041 347 2 0.527 20.18009803805951 23.75513029376054 11.207695721835986 8 -3 4
2157 719 2 0.527 28.80004970412842 26.435603212717524 4.976830116089002 -4 -8 -1
1807 603 1 -1.054 27.644036904681272 19.09921358767106 6.788244210879497 1 4 4
2182 728 1 -1.054 21.721414133247507 31.909115090309083 7.886279641996858 1 6 4
2010 670 2 0.527 21.4399640681271 22.08859774020279 9.404480209896965 -1 -2 -5
1860 620 2 0.527 18.517704355247076 21.17454938164732 12.715589996986838 3 -2 2
1456 486 1 -1.054 30.106184233188152 20.707933393795063 6.823907395827796 0 -3 2
911 304 2 0.527 27.01424372151955 18.207634550689367 8.26461492855722 0 -4 1
1956 652 2 0.527 24.89983336668026 28.399083186390065 15.381126388763128 -2 3 -1
2002 668 1 -1.054 20.85412625117619 23.923242220310577 4.3764620357821915 2 0 4
1013 338 2 0.527 25.682868908475225 28.419592684348647 11.860392041823202 1 4 2
2262 754 2 0.527 31.01738886317011 29.503247064786418 9.7019469290702 1 3 4
322 108 1 -1.054 23.623056925428592 23.573441412649032 11.485139887967398 7 2 3
1955 652 2 0.527 25.415327799253614 27.06386996333059 14.887805014965576 -2 3 -1
210 70 2 0.527 23.040812206083622 27.928594063174483 4.578853585573907 1 -1 4
1359 453 2 0.527 21.445340437746673 25.14395810266846 9.138915537755818 3 2 -1
1195 399 1 -1.054 24.515032853906185 31.614211479657307 3.443012556018737 -1 -2 0
48 16 2 0.527 29.561755989395348 28.493378175545907 14.338784332627121 0 0 2
43 15 1 -1.054 25.949626545181758 19.517602667816888 12.109530395649967 -6 1 8
1842 614 2 0.527 27.804883208748603 31.843538664297487 12.967247417478102 -2 -2 1
2164 722 1 -1.054 31.77852123717817 30.315706408597148 5.35824481214407 0 0 0
2362 788 1 -1.054 18.10279842188349 26.153025728268705 14.225797872918534 3 1 0
1518 506 2 0.527 19.67884587211062 24.9094187342244 14.744701887738824 5 0 1
1493 498 2 0.527 30.243045280794973 24.891005571231656 8.418911654723464 -5 2 1
1222 408 1 -1.054 29.16429270302905 19.496853528681267 11.932499305069864 -5 -2 4
1858 620 1 -1.054 17.93632760986885 21.64317505767408 12.116739008965258 3 -2 2
1761 587 2 0.527 19.300175532176976 18.4523909884926 11.483303017463628 -3 0 -8
1178 393 2 0.527 23.372037270439527 29.332786178095112 11.788919256946349 2 2 -6
13 5 1 -1.054 21.413879387121565 28.25772012102292 9.321366605656957 5 0 0
1923 641 2 0.527 19.955884710128373 30.954429848590813 5.153156122468326 -3 -2 2
1312 438 1 -1.054 31.75772454304133 29.926939407353185 12.703140736331989 -2 1 4
46 16 1 -1.054 29.303756617759035 27.813804673835612 13.716010131171855 0 0 2
1202 401 2 0.527 18.55586977623484 18.288130051256598 15.636189658156868 0 0 2
2353 785 1 -1.054 26.750129760151292 31.444094277454404 16.010990287784768 -2 5 -1
175 59 1 -1.054 19.331818800056347 18.180110692261092 6.993203097374846 -7 3 5
868 290 1 -1.054 28.209210310549 21.867083432458816 3.8836501590917694 1 0 9
1556 519 2 0.527 28.313825163734286 20.64347945247961 13.187635210990077 3 0 7
1102 368 1 -1.054 19.868782279164673 29.79372308349358 6.420018814735457 4 5 -4
106 36 1 -1.054 20.364520062427285 21.73240543467964 16.66004537722428 -4 0 -1
191 64 2 0.527 29.884829382203282 23.280309513774718 14.383482184656609 -2 -3 -2
19 7 1 -1.054 27.282208648166566 29.617387490965857 3.4743848198896403 -1 2 2
2363 788 2 0.527 17.772932522858603 26.94107473230323 14.65753743792666 3 1 0
497 166 2 0.527 28.694345302418057 17.696585361645052 3.8752910329673194 -3 -5 0
1808 603 2 0.527 28.39232901686826 19.68950628980757 6.699672530562998 1 4 4
2166 722 2 0.527 31.695707212307862 30.38193830399177 4.4069369095793665 0 0 0
953 318 2 0.527 28.66253080090615 22.349055980559005 9.96392093931843 -8 -2 -3
1514 505 2 0.527 28.315898155636564 27.09707652981311 7.173737278748656 -5 -3 4
1040 347 2 0.527 19.047175294241107 23.137969905150047 11.999841019582142 8 -3 4
1134 378 2 0.527 22.757649723399883 19.984848645273644 13.896518892066117 -3 1 0
1238 413 2 0.527 28.447512845822796 19.70924737681051 16.532246870974404 3 1 2
1096 366 1 -1.054 25.406017431947422 28.31328676786624 4.962339451901856 -2 -5 0
1984 662 1 -1.054 26.37625110461519 24.35615378296153 7.7921932737133455 4 1 -2
1934 645 2 0.527 19.346238351993517 25.80199722486904 11.88736489960721 -2 7 -1
1252 418 1 -1.054 22.005145178682397 26.217350787172204 7.049757186700281 3 1 2
308 103 2 0.527 22.09536975598025 19.900643127478915 11.313462410525101 -11 3 -5
1986 662 2 0.527 26.006772182305525 24.7449346626146 6.999371820953728 4 1 -2
2092 698 1 -1.054 25.39820702635899 31.861027888135755 10.82921292797258 5 0 2
1667 556 2 0.527 28.219717826537618 22.944748986215124 16.9176969244862 -2 1 -1
1104 368 2 0.527 20.624415007408246 30.25463836752462 6.7844471482592725 4 5 -4
1098 366 2 0.527 25.59149609771984 28.997370451625844 5.605658068547409 -2 -5 0
282 94 2 0.527 19.848725047065486 19.844975465303563 9.65009116656008 -3 1 2
1087 363 1 -1.054 31.754588796400668 20.43088542202456 14.228796583143415 3 2 -3
924 308 2 0.527 30.418237727397603 22.513321036869154 16.493585470405343 -1 2 -4
1759 587 1 -1.054 18.70919757594204 18.679797954635745 10.765484936952499 -3 0 -8
2137 713 1 -1.054 31.918035641408952 25.295432792573177 11.456063411408932 -2 -1 2
1517 506 2 0.527 20.443801512670923 24.689280666660125 16.032442721440624 5 0 1
2196 732 2 0.527 31.093224055685024 20.607961302479204 11.35205016942794 1 -4 -3
869 290 2 0.527 29.14421447743644 21.989579922645646 3.719353565404379 1 0 9
2155 719 1 -1.054 29.207487519882243 26.279636160861465 5.828828079358368 -4 -8 -1
2138 713 2 0.527 31.478957794862723 24.4599513420876 11.615478195487754 -2 -1 2
658 220 1 -1.054 29.9387276104591 18.994710087891953 8.877749159964925 -2 -2 1
2366 789 2 0.527 22.958302984463057 25.495405195555385 15.566228496414121 0 -1 -1
891 297 2 0.527 30.83977795315394 27.089306516555954 4.473357208242868 1 -6 -6
1327 443 1 -1.054 18.38718585974474 18.04346915167781 3.069529970050331 -4 4 -4
1516 506 1 -1.054 19.876128006627845 24.243710606305825 15.403597957854455 5 0 1
1467 489 2 0.527 19.13852242793448 30.180305509211376 10.236678314746142 1 -5 3
1407 469 2 0.527 21.331292029667146 20.256764934998372 5.121829201336385 1 4 3
2097 699 2 0.527 29.740894989209664 26.789109823334552 9.712245754061378 -5 -4 -6
102 34 2 0.527 19.861879259558073 31.593814252825425 13.463492121495754 5 -4 -6
198 66 2 0.527 25.063353793969164 20.760110336148866 5.866093563285714 -4 5 4
20 7 2 0.527 27.784454829059015 28.80640459104954 3.5536772899999964 -1 2 2
2260 754 1 -1.054 31.333816188313204 30.309496071977367 10.109461375197407 1 3 4
438 146 2 0.527 27.751803486350813 23.618118867776847 6.698451822039164 2 -3 -1
1028 343 2 0.527 26.80380279510376 30.186903671589285 6.933483584627205 3 -4 6
202 68 1 -1.054 30.341759086981224 30.290018219220144 14.96613575791557 -4 -2 0
1265 422 2 0.527 24.775770158529426 30.21768330289356 8.145325353920626 4 -3 2
1465 489 1 -1.054 18.991106299014167 29.705888451382684 9.418492084959412 1 -5 3
1845 615 2 0.527 29.588138922953608 18.190575088365964 14.54815820357945 -4 -1 -1
1529 510 2 0.527 18.45466754058789 21.295107589461427 4.506645678046065 1 -2 -4
1555 519 1 -1.054 27.61448756976566 21.109611811613178 13.645761038140273 3 0 7
1997 666 2 0.527 20.39257673145305 22.536687202346773 14.09073454969244 2 1 0
124 42 1 -1.054 24.777258080832322 27.476576809139885 8.273849824058733 3 -5 7
1358 453 2 0.527 22.458084492115237 25.34768964514412 10.24559429750245 3 2 -1
679 227 1 -1.054 24.652322556124336 24.97542228816029 15.401309137817199 0 -2 2
2357 786 2 0.527 21.538457425799663 18.068846085013085 4.877256853508638 1 -1 -1
1214 405 2 0.527 29.979708639626857 23.581528858825177 10.502937982543456 2 -1 2
2003 668 2 0.527 20.204653516445408 23.238090452083984 4.218398731885776 2 0 4
55 19 1 -1.054 31.999848385516728 22.751013256435638 6.278110812480784 0 1 3
204 68 2 0.527 29.61308891622736 30.884388488600486 15.145007605139476 -4 -2 0
681 227 2 0.527 25.393267821280464 24.656523382358127 15.916610374604158 0 -2 2
1237 413 1 -1.054 27.695044040540726 20.242223221158145 16.275421599478037 3 1 2
15 5 2 0.527 21.496170634675508 27.308284502587934 9.410985496701676 5 0 0
1843 615 1 -1.054 29.957931269599808 18.602797912819973 15.328900005091347 -4 -1 -1
71 24 2 0.527 28.388595891178902 30.333142781626538 5.0786218779963725 -2 -2 -2
1480 494 1 -1.054 24.277827373457026 30.004888878826883 16.50099695628919 -6 6 3
2335 779 1 -1.054 27.786265338778833 27.583069269138637 16.374196982916068 1 -4 -1
1530 510 2 0.527 19.46287503155547 21.087717177349877 3.396509922669297 1 -2 -4
1996 666 1 -1.054 20.43177198089013 21.589801872936206 13.95618527596381 2 1 0
714 238 2 0.527 24.831515628114694 21.622195126981744 8.026643533158778 3 -1 0
309 103 2 0.527 21.16500705997854 20.39310575341043 12.401487923840437 -11 3 -5
1027 343 1 -1.054 25.923841177390067 30.403197306147074 6.625074314100337 3 -4 6
125 42 2 0.527 24.783516617563087 28.335833567725203 8.695596474208847 3 -5 7
1673 558 2 0.527 31.042380178401746 19.477332697782824 5.637102204054699 -4 -1 -4
107 36 2 0.527 20.33500709171425 22.68554563033864 16.57707343577415 -4 0 -1
60 20 2 0.527 24.360864145260873 22.182377797815498 14.283080682488551 -4 3 -4
890 297 2 0.527 31.177123918278163 27.84357880883413 3.2048288844678736 1 -6 -6
650 217 2 0.527 20.871334832728095 30.41838109535465 11.981084688563406 0 2 -4
680 227 2 0.527 24.589954102919066 24.364459226869602 14.667098269185322 0 -2 2
2086 696 1 -1.054 20.198618581875248 27.812814850827387 16.398179053108528 1 2 5
72 24 2 0.527 29.737656426238573 30.427496345521167 5.759083215391593 -2 -2 -2
1933 645 1 -1.054 19.137262895800912 26.692057210799625 11.60389723304339 -2 7 -1
1283 428 2 0.527 24.696052081698316 30.383921674089876 12.928939915939115 3 3 6
1457 486 2 0.527 29.922017125564494 21.63630183504819 6.966898020433587 0 -3 2
659 220 2 0.527 30.68521072299913 18.41313787373616 9.021861508976547 -2 -2 1
174 58 2 0.527 30.418015495704765 31.72297908891279 10.671867937781805 0 -3 0
1341 447 2 0.527 27.519355141125814 29.483081403398234 11.840248736576847 -2 -4 0
889 297 1 -1.054 31.40796036897437 27.05988365070483 3.7035946500337174 1 -6 -6
2328 776 2 0.527 19.29504478036463 28.691822072665225 4.597510808268292 -1 0 -2
344 115 2 0.527 24.49269618221017 19.000357673178325 7.424158710101381 -1 1 1
52 18 1 -1.054 25.371915607861016 18.818316897643175 17.207920965789977 1 -3 3
1266 422 2 0.527 24.64532505262811 30.84585085115554 9.51655996367812 4 -3 2
280 94 1 -1.054 20.28611110641421 20.157044434622694 8.857918257744677 -3 1 2
1935 645 2 0.527 19.930537009423343 26.995893983203683 11.162727170647704 -2 7 -1
345 115 2 0.527 23.39010904882036 18.173548950573466 8.050723701090394 -1 1 1
1254 418 2 0.527 21.72506557468516 26.60425590810284 6.220244363506396 3 1 2
1362 454 2 0.527 23.94208869845571 23.96509228164448 5.357504972211965 -1 4 -3
436 146 1 -1.054 28.51695351339659 23.614861146729247 6.123328845232896 2 -3 -1
1513 505 1 -1.054 27.850431148588804 27.580819432068377 7.856060111800891 -5 -3 4
70 24 1 -1.054 28.88014882851785 30.85068691236311 5.716395521659993 -2 -2 -2
1029 343 2 0.527 26.01747879169521 31.26379469881066 6.21661905785144 3 -4 6
1132 378 1 -1.054 23.117452905365663 20.572251219284883 14.561147898218492 -3 1 0
597 199 2 0.527 18.30646406692429 25.14176947757764 3.567792071698854 -1 -4 5
923 308 2 0.527 31.357317819893996 21.813812659701842 15.534048241604058 -1 2 -4
5 2 2 0.527 27.622984842001415 25.31380728703443 16.416312438474435 4 2 1
1672 558 1 -1.054 31.343249950676146 18.673548671705454 5.213262327505302 -4 -1 -4
1492 498 1 -1.054 29.531196404212736 24.792760621874848 9.05124896373603 -5 2 1
1208 403 2 0.527 23.469026575047856 22.31639021911848 16.869055288526585 1 3 -2
1224 408 2 0.527 29.4441424698128 18.623940761021725 12.208068724459057 -5 -2 4
2088 696 2 0.527 20.229067452297183 27.876241451803068 17.352789643812493 1 2 5
2008 670 1 -1.054 21.578850379009634 22.83981956937176 9.981202101441017 -1 -2 -5
437 146 2 0.527 28.245707561286583 23.096134400483553 5.365978338997091 2 -3 -1
4 2 1 -1.054 27.077457469095926 24.582249448691286 16.705197476184612 4 2 1
14 5 2 0.527 21.956673967759397 28.475182547249446 8.563530505770833 5 0 0
2173 725 1 -1.054 25.114439906152214 25.480853126331553 5.417673504171209 -1 -4 2
2004 668 2 0.527 21.057763918601346 24.266223768306453 3.506331604315766 2 0 4
1351 451 1 -1.054 26.197854173589445 25.632243617786646 10.325967015361545 -3 1 -2
2326 776 1 -1.054 19.490147562208673 27.99966496909143 3.9657789808415425 -1 0 -2
44 15 2 0.527 26.39337584089388 19.536076125399696 11.261605740591891 -6 1 8
1985 662 2 0.527 26.249186661045474 25.022234739445633 8.467783646050638 4 1 -2
1357 453 1 -1.054 21.61756916892226 25.66978617199639 9.919987789388603 3 2 -1
713 238 2 0.527 25.635106729914245 22.887799499463473 8.23731303777368 3 -1 0
1014 338 2 0.527 24.96724012915297 28.450557718296444 13.194112740571223 1 4 2
1405 469 1 -1.054 22.102787450031933 19.748008780826463 4.872443551506326 1 4 3
2096 699 2 0.527 29.280627055652086 27.8553830015531 10.683384272944265 -5 -4 -6
649 217 1 -1.054 20.01498635398072 30.818527939539692 11.830148821851704 0 2 -4
1361 454 2 0.527 22.494107663470626 23.524185300037164 5.3866035748549095 -1 4 -3
1236 412 2 0.527 24.35747339181459 21.2038240696975 9.951111494611194 -2 -3 6
6 2 2 0.527 26.4959031557966 24.962002182397843 17.363843203176963 4 2 1
1954 652 1 -1.054 25.6080062643498 28.001384095638855 14.874610674159872 -2 3 -1
922 308 1 -1.054 31.17873900461878 22.665568344172364 15.932612774815746 -1 2 -4
1557 519 2 0.527 27.45647373886599 20.59041881018827 14.43424185671002 3 0 7
1282 428 1 -1.054 24.208564889129097 31.115801003914914 13.307014810522395 3 3 6
1180 394 1 -1.054 21.607561699046634 30.161688210532073 15.627630525718466 1 -1 4
2095 699 1 -1.054 29.9601048529222 27.194247444785887 10.55131805562079 -5 -4 -6
810 270 2 0.527 21.24921999996022 18.052796597422454 12.316537131491916 0 -3 1
59 20 2 0.527 25.781575995505943 22.695144204667265 14.18039891350099 -4 3 -4
47 16 2 0.527 30.13034194726206 27.428977677214757 13.42464202385026 0 0 2
1287 429 2 0.527 31.285477570224778 26.121033166463345 6.8760093963586515 -8 -4 -3
1841 614 2 0.527 26.848688065181015 31.450267108900196 11.86138893760798 -2 -2 1
58 20 1 -1.054 24.906486964496104 22.810760357177596 13.810150549130247 -4 3 -4
1181 394 2 0.527 21.04527953548252 30.859628719833168 15.291551074609146 1 -1 4
2364 788 2 0.527 18.54742346650452 26.47682518924367 13.442411599257106 3 1 0
2174 725 2 0.527 25.541818225110337 26.330202910681596 5.528056461515987 -1 -4 2
1239 413 2 0.527 26.935885489726495 19.686726038032585 16.45243245536652 3 1 2
1482 494 2 0.527 23.40268522675844 30.05269687362585 16.11619564756621 -6 6 3
1458 486 2 0.527 30.14985060573296 20.333630352014964 7.703806414397913 0 -3 2
45 15 2 0.527 26.48572306418643 20.075416807653536 12.673157446770833 -6 1 8
1284 428 2 0.527 23.31033550264905 30.793327895946554 13.38068213219709 3 3 6
177 59 2 0.527 18.468846271542716 18.589735794774022 7.054171489443739 -7 3 5
2093 698 2 0.527 24.64406482146735 31.745034874729527 11.407180857109577 5 0 2
196 66 1 -1.054 24.24811092543765 20.847375907883546 6.360052584629978 -4 5 4
660 220 2 0.527 29.207189080948307 18.405273093404155 8.694317433201793 -2 -2 1
108 36 2 0.527 19.513806869242224 21.497304004223587 17.030512636773192 -4 0 -1
197 66 2 0.527 23.88893004641661 21.690386996309485 6.083370156518678 -4 5 4
1809 603 2 0.527 27.082542997414787 19.30990286660287 6.042210637921843 1 4 4
2354 785 2 0.527 26.96747670635768 31.02099388727759 16.841639470929557 -2 5 -1
1815 605 2 0.527 26.14767094997473 19.244130162924183 3.8385290447465445 1 -6 -2
1528 510 1 -1.054 19.329025839934584 21.558125689523866 4.219329432303186 1 -2 -4
1523 508 2 0.527 19.313402296039925 23.276567057577886 8.179708658297715 1 2 -1
343 115 1 -1.054 24.285484034236564 18.11316311276566 7.717723701102072 -1 1 1
1179 393 2 0.527 22.172328046372694 29.392377068908598 10.867484628952958 2 2 -6
1524 508 2 0.527 19.35404726924594 21.77108888279415 8.333910363267352 1 2 -1
1197 399 2 0.527 25.263576339530022 31.30119191518553 3.9508836896663744 -1 -2 0
100 34 1 -1.054 20.023662393486738 31.952970732456304 14.335882313114455 5 -4 -6
2050 684 1 -1.054 31.13990378757157 22.22571349732924 3.4371233569287596 -3 -5 -1
2261 754 2 0.527 31.679755329352798 30.030193443002894 10.957133454313599 1 3 4
2378 793 2 0.527 21.536216700810957 17.783117597932733 14.597387237671718 -4 2 3
2194 732 1 -1.054 31.974587552675047 20.26859976802269 11.507817104083749 1 -4 -3
1706 569 2 0.527 22.450376250089743 24.318310554385715 17.405180161949346 -9 -6 3
1378 460 1 -1.054 31.69822503019581 25.705411262911674 16.371812807499307 -4 7 -1
2377 793 1 -1.054 21.688392888914553 18.056032123741556 15.502147670082667 -4 2 3
1379 460 2 0.527 31.92852335910398 25.696001589091587 15.442777857364923 -4 7 -1
1760 587 2 0.527 18.658985599211093 17.884686588251565 10.23491154109693 -3 0 -8
1089 363 2 0.527 31.700008925125527 20.28434371424953 13.284456477454379 3 2 -3
1599 533 2 0.527 17.53950606362597 29.988759705588752 8.252638744509499 3 3 2
56 19 2 0.527 32.009410077447015 23.627853492171685 6.6618966825589805 0 1 3
1481 494 2 0.527 24.1498404759323 29.547903859591592 17.33227054080594 -6 6 3
1313 438 2 0.527 31.790536402416706 29.082320974094408 13.152334122801319 -2 1 4
2046 682 2 0.527 17.677699427272533 29.70822599903635 16.793605229149485 -2 -3 -1
672 224 2 0.527 31.956129450272666 27.71969490219419 17.15692514068745 2 -4 1
767 256 2 0.527 24.07866185419328 23.028502482554405 29.01165465990318 2 -3 -3
32 11 2 0.527 31.107505848452423 31.515244409521 22.91098055911815 -3 -2 -1
560 187 2 0.527 28.93859283909467 30.743178435252183 25.079677330322063 6 -1 3
1344 448 2 0.527 24.14128764171505 27.92275822804142 19.74031038150939 0 -8 -1
673 225 1 -1.054 29.13151457669747 28.50945648946929 18.762020307474234 -3 4 0
1545 515 2 0.527 28.939782500075157 20.286185321463012 23.613387019450116 -8 7 -4
1543 515 1 -1.054 28.743355503067065 19.37493832472357 23.395954772898886 -8 7 -4
1216 406 1 -1.054 17.88740226008597 23.339673898798246 28.013882751055746 -8 3 1
559 187 1 -1.054 29.71423239664286 30.600178962733157 25.622047695627085 6 -1 3
1583 528 2 0.527 27.824643447572193 19.03297127015718 21.86437334705397 3 -5 7
133 45 1 -1.054 30.82791264691961 29.36590929988614 31.31031281982333 3 -3 2
305 102 2 0.527 26.779783289082115 30.968406990554968 24.522027741244557 1 2 4
2117 706 2 0.527 30.428525886901358 21.751227315012898 23.82100876369116 0 3 2
367 123 1 -1.054 21.471340955421507 32.004313085709754 19.462218105871912 -3 0 2
899 300 2 0.527 23.998936998621716 26.991175564584047 24.716128428606854 5 -1 -2
1972 658 1 -1.054 28.12221475520955 31.335964622798098 27.98402490020697 5 1 -1
254 85 2 0.527 30.84557817245642 25.54481594864434 31.98675315046802 -3 -5 2
2118 706 2 0.527 29.07865461533942 22.19366669301574 24.344447057529514 0 3 2
274 92 1 -1.054 26.38165525508849 24.220660542482136 23.87040997930856 3 2 1
1320 440 2 0.527 30.332487218671023 18.736931572783075 31.11819084244469 1 -2 -1
1666 556 1 -1.054 28.706395537112112 22.410884923482115 17.545682377025862 -2 1 -1
998 333 2 0.527 20.37276653581716 25.15562605666609 30.341153197059477 -1 1 2
505 169 1 -1.054 18.851349255511753 28.757282096966993 23.225214648520133 -1 4 -3
1665 555 2 0.527 21.330871836259835 22.68178564627351 19.088279986983384 -1 1 3
2080 694 1 -1.054 32.038759727472446 25.762013778229914 20.649695138163793 2 4 1
1329 443 2 0.527 18.792805391603924 18.75582704315566 31.66758141795328 -4 4 -5
1095 365 2 0.527 19.07961287362892 19.313592207259095 20.201419561113756 -3 2 3
228 76 2 0.527 22.112282654579797 28.592911424789488 19.161590014978557 2 1 2
2344 782 1 -1.054 24.46131224952985 29.053843395354978 22.090283449039656 0 -2 -3
1421 474 2 0.527 25.725721138650798 25.843673168781145 31.146510163492966 1 3 5
2345 782 2 0.527 24.94850130981912 29.44599611166336 22.81491740006629 0 -2 -3
31 11 1 -1.054 31.724592155424787 31.080904058796378 23.499864925244367 -3 -2 -1
1664 555 2 0.527 20.94152046681415 21.414486227152718 19.819205690783953 -1 1 3
1381 461 1 -1.054 27.168202507900094 26.92963420105873 20.264580143773532 -4 -1 -2
166 56 1 -1.054 30.10681033380113 27.711288895723886 26.667150198049512 -3 -5 -4
608 203 2 0.527 21.746733476531436 22.089590455910045 27.166790760744252 3 -5 -6
1094 365 2 0.527 20.10259023630746 18.228597134319408 19.94027604565457 -3 2 3
1346 449 2 0.527 21.694304042565694 28.113807353519203 27.725342781703628 -6 2 1
609 203 2 0.527 20.555216673146166 21.230176681895927 26.801289913850106 3 -5 -6
227 76 2 0.527 20.6105528776662 28.48170004743755 19.005595045278714 2 1 2
189 63 2 0.527 27.44040573567382 22.525242149780365 29.948658287504802 -3 -4 0
159 53 2 0.527 27.90698224155187 25.224743920102988 20.135606204641963 -5 -4 2
1056 352 2 0.527 27.46271333878241 17.90520291366408 29.105268574417266 -4 0 0
296 99 2 0.527 30.2430232605193 26.859980240934743 23.075908166521476 -2 -1 -1
1960 654 1 -1.054 21.091957729629414 25.099629261444402 22.3875697532537 5 -3 -8
2053 685 1 -1.054 22.683451872109625 27.726500308662217 30.78719231167295 -4 3 -3
1653 551 2 0.527 21.292852370383162 30.33690609931589 21.25582680654272 -1 3 -3
535 179 1 -1.054 20.803232852600406 23.46643143194351 24.493435050181198 -4 -3 -1
1839 613 2 0.527 29.577720058158153 20.74644771459427 29.13623025632909 0 -4 -2
1660 554 1 -1.054 27.65974457407292 27.324315943391777 25.357786895227562 8 -1 5
270 90 2 0.527 24.030584580206174 25.330781123115106 27.872337024363798 3 4 -1
1697 566 2 0.527 30.03101103312688 26.223362201932343 30.12615304909194 5 3 -3
2076 692 2 0.527 17.791901817300644 25.284817819017924 21.60151389019986 1 -2 -5
62 21 2 0.527 23.89384502849457 22.765556911517308 25.519356327153986 0 -6 0
1319 440 2 0.527 29.419366068692256 19.709308114171037 31.834143613008155 1 -2 -1
1077 359 2 0.527 20.275904895058122 22.424757212808704 22.908944141022683 -3 -4 -4
253 85 1 -1.054 30.497058540107535 24.823414602403087 31.46297265444608 -3 -5 2
1333 445 1 -1.054 30.443999654009577 20.13399409269626 18.72293818583077 0 3 -2
1622 541 2 0.527 20.24973952491 26.01081885520512 23.67915911321714 1 0 1
1016 339 2 0.527 21.352522788102938 22.0530771871371 29.13591857783934 -5 1 -8
1085 362 2 0.527 25.671394350983633 24.807333674170202 19.422089596306197 -3 -1 3
523 175 1 -1.054 30.577486983720846 17.917691147032706 29.56384192782624 3 -5 2
1051 351 1 -1.054 23.594062256575214 20.727598779016553 31.380092195317772 0 -1 -8
501 167 2 0.527 28.73817202382681 24.63178809058483 22.15312595131488 -2 -5 6
136 46 1 -1.054 17.78798456113947 26.692825895079718 26.709708061846396 -1 2 0
1060 354 1 -1.054 31.013633430103265 29.304421438484606 20.443196028387295 -3 -3 7
1448 483 2 0.527 21.413539032624552 18.770284124192887 18.46037504892003 -1 -5 5
1698 566 2 0.527 29.87763640578079 27.201207153321228 28.98064433694689 5 3 -3
1662 554 2 0.527 26.83910983666991 26.857430603738603 25.200279606501372 8 -1 5
1707 569 2 0.527 23.591950273228793 24.05091425348629 18.362887378162974 -9 -6 3
1837 613 1 -1.054 28.80969645009212 21.133417094617585 28.715961162513427 0 -4 -2
1076 359 2 0.527 20.126971493123875 21.27374144854693 21.93689650974179 -3 -4 -4
96 32 2 0.527 24.914553702584865 30.48040327913075 25.538230586066494 -8 2 1
1584 528 2 0.527 27.736661615883627 19.98876383152119 20.69364152285911 3 -5 7
1743 581 2 0.527 30.870099558476618 25.762998719639498 26.1629255064539 2 2 3
1124 375 2 0.527 19.205565235438783 25.20701730128608 19.57681798899474 0 -2 2
1696 566 1 -1.054 29.72974251496243 27.108637406038522 29.921808409955123 5 3 -3
1440 480 2 0.527 18.665193069234455 19.188293072105374 17.57130265106032 -1 11 1
1335 445 2 0.527 29.9692361452281 20.940803570541153 18.922662412200523 0 3 -2
1150 384 1 -1.054 19.42261025036052 20.3708621671995 30.841743904759873 5 -1 -6
2272 758 1 -1.054 20.816360653636348 18.368608902215396 24.664932835366955 0 -1 0
1623 541 2 0.527 20.596456044582833 26.702842144443615 24.980230189970232 1 0 1
63 21 2 0.527 23.209643766120127 21.438810640793584 25.26734843103157 0 -6 0
1613 538 2 0.527 25.80300758139006 22.81160503241814 20.210464089686752 -3 0 2
2346 782 2 0.527 24.329645105022628 29.773088528679786 21.472560768789453 0 -2 -3
1989 663 2 0.527 28.03844504336148 31.316410494860428 19.490942647770648 3 -2 -6
277 93 1 -1.054 18.905218590339825 17.69945258364912 22.816278660940906 0 -7 -2
848 283 2 0.527 22.535634605376103 19.39182221761402 24.76717626025149 6 -1 -2
933 311 2 0.527 31.867052711527187 24.463493397188397 29.847076507124612 -2 -2 2
1053 351 2 0.527 23.18783992178988 21.42575540357636 30.866484873619303 0 -1 -8
1796 599 2 0.527 26.898769755992728 30.33507448021043 29.01683066435856 -6 -2 -1
948 316 2 0.527 31.700391601253653 20.204196615286946 19.812408668303863 -3 1 0
537 179 2 0.527 21.628182271228496 23.33416543601086 24.960549569661122 -4 -3 -1
1973 658 2 0.527 28.682602904371137 31.739483318082723 28.646874265320147 5 1 -1
800 267 2 0.527 29.246272252701537 22.14894839935363 27.10824768625181 -3 2 -4
927 309 2 0.527 22.9040875818851 28.987047178343953 24.646666742090332 3 -6 -4
1114 372 1 -1.054 28.775706065112022 21.623118215968404 20.641126804293293 2 -6 1
898 300 1 -1.054 24.782548186225426 26.53521357147106 25.023185168139257 5 -1 -2
766 256 1 -1.054 23.935688620674846 23.973565774297143 29.06309092130097 2 -3 -3
2290 764 1 -1.054 21.942125388627638 18.686270986208466 27.693165172178823 0 3 3
1062 354 2 0.527 30.289299907347356 28.98183771373753 19.90699454912025 -3 -3 7
1795 599 1 -1.054 26.373525180626547 29.967578707216376 29.727672968624496 -6 -2 -1
1988 663 2 0.527 29.11074067690453 31.869315781376596 18.576408435298315 3 -2 -6
1974 658 2 0.527 28.72820166245294 30.865702508651264 27.411429823110808 5 1 -1
840 280 2 0.527 18.007369853563794 21.481045157927692 22.1901934207926 2 5 1
98 33 2 0.527 19.85328258865216 29.596926472617668 24.924574071290422 6 1 -5
867 289 2 0.527 23.809213476254342 20.757232586213792 19.085373562234494 -1 0 -1
1123 375 1 -1.054 18.862193298134525 24.52590415399497 20.155101819552062 0 -2 2
1705 569 1 -1.054 22.730259061153003 23.72540351354724 18.102574382094105 -9 -6 3
561 187 2 0.527 30.41480984354305 30.41817380592238 24.995711479640338 6 -1 3
1093 365 1 -1.054 19.79667975492667 18.833737787008406 20.61589031808017 -3 2 3
1382 461 2 0.527 26.86702492862154 27.34461257343124 21.07286028915443 -4 -1 -2
269 90 2 0.527 23.056371117704664 26.485521188943657 27.77549351410469 3 4 -1
1987 663 1 -1.054 28.28135505296924 31.391526351007457 18.568129497980262 3 -2 -6
1061 354 2 0.527 31.02956557852869 28.720417433399085 21.20142883889665 -3 -3 7
500 167 2 0.527 29.39690275760945 24.16534411118046 23.433906573330326 -2 -5 6
2391 797 2 0.527 22.592037018448597 30.47741039355718 27.684830743059734 0 -4 -2
1342 448 1 -1.054 24.470966372019486 28.438430168247223 19.004358271371377 0 -8 -1
1661 554 2 0.527 27.85751657789731 27.750120854651417 24.52363585906725 8 -1 5
1544 515 2 0.527 27.915571926345667 19.194946938959294 23.84161076039377 -8 7 -4
622 208 1 -1.054 22.983678941544834 18.03733008869454 30.261589929151096 1 -4 -5
168 56 2 0.527 30.142341971952327 28.62946090416774 26.398953990512275 -3 -5 -4
362 121 2 0.527 26.684806405279822 31.45990221225624 21.83181509899936 1 -5 0
1270 424 1 -1.054 25.184737536201716 27.46526138059395 29.856028700948876 -1 4 -1
1017 339 2 0.527 21.257282909873915 23.044564022598195 30.27599654222308 -5 1 -8
623 208 2 0.527 23.111826861584404 18.95700676119741 30.493977725337366 1 -4 -5
95 32 2 0.527 25.493114415922005 29.08930081751692 25.38991863417338 -8 2 1
97 33 1 -1.054 20.239412243142617 29.611737830582662 25.800311454104005 6 1 -5
1054 352 1 -1.054 27.547232115859018 18.392129881982417 28.285518521640757 -4 0 0
1439 480 2 0.527 17.59401283255327 19.177982676356987 18.641050446678594 -1 11 1
1614 538 2 0.527 25.78485370084221 23.36909928747494 21.617860888978704 -3 0 2
40 14 1 -1.054 28.122730420281673 28.750174120493217 22.660443396790434 -7 4 -1
42 14 2 0.527 29.032592701977844 28.494626052606552 22.508530160860207 -7 4 -1
1693 565 1 -1.054 31.703684097178485 24.179675239562897 23.626797568062113 -2 4 6
1797 599 2 0.527 25.617734243713578 30.551188221195368 29.79409360919269 -6 -2 -1
278 93 2 0.527 19.14875190947917 18.149571912254732 22.007380838315502 0 -7 -2
2081 694 2 0.527 31.6061790005452 26.193978302659133 19.913141071651985 2 4 1
847 283 1 -1.054 23.386039342661427 19.76429667273564 24.534139803720876 6 -1 -2
536 179 2 0.527 20.393022973748963 24.20920545256865 24.93643216892943 -4 -3 -1
900 300 2 0.527 24.592754752360698 26.320225195475942 25.93641573341766 5 -1 -2
1753 585 1 -1.054 27.027477427391545 18.54787592901597 31.139697091262263 2 -7 1
2390 797 2 0.527 23.195899938225722 30.39036718171738 29.070351634311088 0 -4 -2
361 121 1 -1.054 26.940044800963978 31.84966676412725 20.995652289270176 1 -5 0
1084 362 1 -1.054 25.217854538121987 25.225190910752367 18.69001861186683 -3 -1 3
771 257 2 0.527 21.704154191160626 19.64228560113215 21.07308087640026 1 -3 -3
926 309 2 0.527 21.551341829164926 28.605116837101427 25.20889733616653 3 -6 -4
41 14 2 0.527 28.175907946198294 29.654334739972292 22.970116690095274 -7 4 -1
275 92 2 0.527 25.89445176247259 25.038479512826456 23.970592294131094 3 2 1
1663 555 1 -1.054 20.68209363842479 22.327649565010706 19.69647917552568 -1 1 3
2055 685 2 0.527 22.712363933852863 27.430951680866094 31.697162700736538 -4 3 -3
1385 462 2 0.527 18.191795841440143 26.497359974925196 30.03536443122475 -7 3 -4
193 65 1 -1.054 18.07819423837701 30.746538739398627 30.36691743695563 0 -4 3
1695 565 2 0.527 31.998258012666884 23.269581676906807 23.59233572779658 -2 4 6
865 289 1 -1.054 23.84409159579322 21.4620792998283 19.73206239084947 -1 0 -1
2116 706 1 -1.054 29.572628438422463 22.069509046921645 23.53401163571672 0 3 2
769 257 1 -1.054 22.44117068465963 19.85115668191924 21.647024570890498 1 -3 -3
624 208 2 0.527 22.454598441298938 18.062734089595818 29.464306912186274 1 -4 -5
2316 772 2 0.527 25.14625095565268 18.886777298183684 24.631810421361955 -4 0 2
1115 372 2 0.527 28.77142341280204 22.57615342339739 20.552035267554924 2 -6 1
1540 514 1 -1.054 24.808649574007152 21.40963620829229 28.432297262862892 -9 3 -2
2325 775 2 0.527 18.089930174943305 31.24392509246829 20.413794818695013 0 -6 2
489 163 2 0.527 22.41168537638022 26.231305016690367 21.229965044069953 9 6 4
1125 375 2 0.527 19.61638218559697 23.966743586610317 20.34156999719996 0 -2 2
2054 685 2 0.527 23.60129598432651 27.766076956346705 30.518440569568675 -4 3 -3
1334 445 2 0.527 29.78219594949732 19.44503097542999 18.782750291006124 0 3 -2
1217 406 2 0.527 18.11175024836307 24.26689703695334 27.935416157793295 -8 3 1
138 46 2 0.527 18.348306382174876 26.606786722024736 25.93843086097565 -1 2 0
1271 424 2 0.527 25.63027763183344 28.285585284732 29.64438154936307 -1 4 -1
187 63 1 -1.054 26.81225010594076 22.857166412496436 30.59012423720074 -3 -4 0
24 8 2 0.527 20.58485981362809 32.011130915139 22.804877895000523 -1 3 -1
1755 585 2 0.527 27.63980111433303 17.863584892758954 31.40995079207513 2 -7 1
2257 753 1 -1.054 21.80533631123675 30.448689111662013 31.504812928251763 3 -5 6
488 163 2 0.527 23.32089386387014 27.37023340291433 21.63993670322796 9 6 4
1741 581 1 -1.054 31.086110692935257 24.831870088809954 26.112228549666064 2 2 3
735 245 2 0.527 19.825791682583095 21.418651030307814 24.833464466903397 2 -3 -4
734 245 2 0.527 18.726025588174107 20.747759537083038 25.62864631015123 2 -3 -4
1961 654 2 0.527 20.15995573984008 25.060437357691058 22.17293627998073 5 -3 -8
226 76 1 -1.054 21.328789102188615 29.11415722606435 18.986454973829616 2 1 2
1447 483 1 -1.054 21.66817974184318 19.68777087033781 18.36235519242447 -1 -5 5
137 46 2 0.527 18.329522353491186 27.15518743616591 27.34938747494471 -1 2 0
1347 449 2 0.527 21.44916330818597 27.457514831622944 29.067386397463807 -6 2 1
158 53 2 0.527 28.629390132677173 24.207876543744565 19.277700288913593 -5 -4 2
195 65 2 0.527 18.254408158900166 29.92138693981388 29.914916421525547 0 -4 3
1015 339 1 -1.054 21.54664576775323 22.15628386425023 30.067528081912563 -5 1 -8
1422 474 2 0.527 26.06183972648904 24.409802131458108 31.497127210091328 1 3 5
21 7 2 0.527 26.972626303941652 29.620359288291983 31.660904438339625 -1 2 1
799 267 1 -1.054 29.08909818443945 22.6309614405315 26.29634161668487 -3 2 -4
1541 514 2 0.527 25.319835753800508 21.8291679274525 27.740261393689003 -9 3 -2
1345 449 1 -1.054 21.4189548153514 27.28906430598585 28.12560961001287 -6 2 1
2074 692 1 -1.054 17.728083337083554 25.724068651567187 22.44958081504969 1 -2 -5
255 85 2 0.527 30.801122381015716 24.03351572550342 31.91000368535655 -3 -5 2
1383 461 2 0.527 27.877719456427542 27.492942021564534 19.955546548139075 -4 -1 -2
368 123 2 0.527 21.23058004060744 31.134689329160818 19.14281219454476 -3 0 2
188 63 2 0.527 26.059192878002566 22.27121229417793 30.514003236058034 -3 -4 0
135 45 2 0.527 31.268186091958412 30.04734747072362 30.802343201799758 3 -3 2
1694 565 2 0.527 31.542732025168903 24.344810067436804 24.55580605412586 -2 4 6
1116 372 2 0.527 29.405071595595587 21.450366890922197 21.341332330837606 2 -6 1
2389 797 1 -1.054 22.68684205893061 29.88871175969992 28.433614889759582 0 -4 -2
642 214 2 0.527 29.838336534961957 31.44658623847555 20.810220121187704 -7 4 -3
997 333 1 -1.054 21.277683282057968 24.867795237447783 30.461613790494745 -1 1 2
2315 772 2 0.527 26.19100238059459 17.985153775810055 25.25427696290199 -4 0 2
524 175 2 0.527 30.460834843274508 17.603087976933292 28.667377683017385 3 -5 2
1384 462 1 -1.054 18.652956047976016 25.666420364257345 30.149828595147692 -7 3 -4
768 256 2 0.527 23.27534949923244 24.079464436598826 29.747903967055308 2 -3 -3
1394 465 2 0.527 17.558394973686767 21.816954828556053 28.776735636518925 4 3 -2
607 203 1 -1.054 21.168590951219098 21.4101786134025 27.513752640119392 3 -5 -6
2314 772 1 -1.054 26.032480917839692 18.550587822386994 24.498375439645066 -4 0 2
674 225 2 0.527 28.70521143779213 29.347870192003693 18.584369250692426 -3 4 0
297 99 2 0.527 31.60164607230743 27.391012912838153 22.670886415884954 -2 -1 -1
866 289 2 0.527 23.262771131998903 22.13744831674477 19.38252715849703 -1 0 -1
499 167 1 -1.054 28.940128067012534 24.91170805063665 23.045925148493872 -2 -5 6
1652 551 2 0.527 20.96237940453065 29.758488256331145 22.615280563395146 -1 3 -3
1386 462 2 0.527 17.982112261086275 25.06119968611148 30.46591125650324 -7 3 -4
1438 480 1 -1.054 18.36158070326831 19.666151345432716 18.343119925460563 -1 11 1
1246 416 1 -1.054 26.16481395331939 23.00741023388416 26.472413601242906 -2 -5 0
487 163 1 -1.054 22.809120862596483 27.038120413115653 20.902358949554078 9 6 4
1 1 1 -1.054 18.819665006667552 27.470452955073963 18.926918763886857 0 -4 0
157 53 1 -1.054 28.71825932335673 24.719611782156107 20.08172829536468 -5 -4 2
1152 384 2 0.527 20.08090612347227 21.013510263082726 30.577392592387135 5 -1 -6
295 99 1 -1.054 30.6728756272535 27.621967079267385 22.687533946928053 -2 -1 -1
849 283 2 0.527 23.316697913993117 19.953951627349433 23.598482583562323 6 -1 -2
1542 514 2 0.527 24.93656471549772 20.471733561071762 28.290143153601434 -9 3 -2
1612 538 1 -1.054 26.018077145414235 23.594600476368434 20.7173122443837 -3 0 2
1582 528 1 -1.054 27.351276374670494 19.186887683940462 21.04677651948528 3 -5 7
134 45 2 0.527 30.400554184740077 28.81564505063671 30.653954839765603 3 -3 2
150 50 2 0.527 28.32603860252994 18.258743735930814 19.648828190290285 1 -5 2
925 309 1 -1.054 22.382290107262445 28.231083830718713 24.915885184195684 3 -6 -4
1962 654 2 0.527 21.20958352622884 24.436850792851406 23.068099114812288 5 -3 -8
506 169 2 0.527 18.680767707208492 27.815416628588327 23.22043939626178 -1 4 -3
1196 399 2 0.527 24.902627230747964 32.00164264695058 31.75048894094353 -1 -2 -1
115 39 1 -1.054 22.397341738059886 31.923762945422137 26.328397647441342 2 4 0
675 225 2 0.527 29.005519087778133 28.001573123827686 17.960514575421534 -3 4 0
268 90 1 -1.054 23.974888916949293 26.256204702340604 27.634175271472852 3 4 -1
1754 585 2 0.527 26.16583971185425 18.20780405030488 31.38086774490694 2 -7 1
2274 758 2 0.527 20.24224799929738 19.065235813744746 24.983267415379082 0 -1 0
1343 448 2 0.527 25.358961182620316 28.685138119540742 19.26287748476948 0 -8 -1
1420 474 1 -1.054 25.93852595100007 25.275370203913063 31.88676468866587 1 3 5
999 333 2 0.527 21.802106467911365 25.653256342543155 30.30584897689351 -1 1 2
2 1 2 0.527 18.739421253111512 28.339196828016117 19.32071655677476 0 -4 0
1437 479 2 0.527 17.57349751883 31.61454454569976 27.427958108167314 2 1 -6
1008 336 2 0.527 25.085415988701275 18.2333760841918 20.104581771901117 0 4 6
1086 362 2 0.527 25.234783937652658 26.1591792257361 18.898851000922786 -3 -1 3
2082 694 2 0.527 31.322479817087956 25.496058307990506 21.22627341160354 2 4 1
1151 384 2 0.527 18.70835785419607 20.48734345754172 30.21523976918575 5 -1 -6
507 169 2 0.527 18.23565725909681 29.10942575380785 23.867981826465705 -1 4 -3
770 257 2 0.527 23.10397608447174 20.218722153465247 21.062373940242185 1 -3 -3
739 247 1 -1.054 17.747586884395158 29.563436937266317 20.122144073444876 -2 0 -2
304 102 1 -1.054 27.567545741161716 31.10149566822231 23.994818537975956 1 2 4
276 92 2 0.527 27.263715423998008 24.495862981914076 23.62047981252414 3 2 1
3 1 2 0.527 18.043164251968182 27.385050961715994 18.373759838248766 0 -4 0
733 245 1 -1.054 19.670324354817083 20.724348235925415 25.473781037693815 2 -3 -4
801 267 2 0.527 29.477239406324845 23.492392850741624 26.449684151449148 -3 2 -4
99 33 2 0.527 19.8811136843034 30.400563036046126 26.207261954700634 6 1 -5
167 56 2 0.527 29.3092699779316 27.373043565791093 26.260024579945203 -3 -5 -4
2291 764 2 0.527 21.772522108441798 19.625443275489364 27.76679884625355 0 3 3
1075 359 1 -1.054 19.6277998441464 21.824961842189207 22.539570193937095 -3 -4 -4
1621 541 1 -1.054 19.877615948011194 26.266135688582683 24.523296942840368 1 0 1
1651 551 1 -1.054 21.384525516305228 30.50682087586519 22.1933534928264 -1 3 -3
671 224 2 0.527 31.837636850700893 29.177174887163968 17.548851986817297 2 -4 1
1247 416 2 0.527 27.050726422275662 22.988695255439385 26.83440877352823 -2 -5 0
1006 336 1 -1.054 24.356655101890308 17.956729390790432 19.549058605752336 0 4 6
2273 758 2 0.527 20.27579844285565 17.875301383332804 24.04794689691901 0 -1 0
2292 764 2 0.527 21.193352423088562 18.344783334165786 27.204333214792708 0 3 3
94 32 1 -1.054 25.320608088784255 29.893522336843358 24.90032588534459 -8 2 1
1055 352 2 0.527 27.22356644089356 17.790838362193792 27.61475729338318 -4 0 0
61 21 1 -1.054 23.046020186768956 22.326318107488646 25.58639327749822 0 -6 0
2258 753 2 0.527 21.98218754267358 29.57451512267234 31.1572857547746 3 -5 6
1272 424 2 0.527 24.685742149660886 27.2527559167862 29.067310219321183 -1 4 -1
1248 416 2 0.527 26.286497848810153 23.24073392815444 25.55209589158676 -2 -5 0
1318 440 1 -1.054 30.11595808508392 19.07123407174392 31.98858653294546 1 -2 -1
993 331 2 0.527 28.680417997392933 26.77859018912193 31.68522612274993 -4 -4 -1
54 18 2 0.527 25.035324364039013 18.28105863842011 17.92506228022314 1 -3 3
1838 613 2 0.527 28.284496914978337 20.382943069533134 28.43813800787376 0 -4 -2
148 50 1 -1.054 28.881900145862854 17.645436706944672 19.16809541684771 1 -5 2
1742 581 2 0.527 31.619522457320883 24.666580743936073 26.889649169207857 2 2 3
2259 753 2 0.527 22.67158319102381 30.822192185512588 31.66711890258913 3 -5 6
1108 370 1 -1.054 25.573906684069435 31.884854942861732 26.922434950077673 1 -6 0
1110 370 2 0.527 26.521474789340292 31.81738827928549 27.039885913705678 1 -6 0
1328 443 2 0.527 17.87323391380952 17.563240501654445 31.51259495602176 -4 4 -5
2319 773 2 0.527 20.654646381678564 31.651945638937963 30.567836320493907 -6 3 -3
2385 795 2 0.527 30.282981435515605 17.851013072603877 23.856085200627586 -3 0 5
303 101 2 0.527 31.30475866097981 17.89721062304947 26.81308035519879 5 -3 1
363 121 2 0.527 26.11118983300023 32.03274637051823 20.553257822550986 1 -5 0
581 194 2 0.527 24.09663679960935 17.535829104660152 31.727191657682553 0 -4 -1
2025 675 2 0.527 24.796210730448486 32.0387835374912 28.543333145373246 -1 -1 0
1668 556 2 0.527 28.240886360402982 21.574650708335877 17.56134063345199 -2 1 -1
1052 351 2 0.527 22.918059934230186 20.464752930287265 32.00472382206381 0 -1 -8

Velocities

2099 0.010906819609770415 -0.018998087098946972 -0.0033654126970289176
2263 0.002158885898157015 -0.0024241372091181627 0.0008435467826410312
2011 -0.0011867000890832934 -0.0018227994961775885 0.005244516899018997
2177 0.0021272339886855346 -0.012067564309269864 0.007194722585666779
1460 0.019426514699646003 0.009846726529137963 0.0035951689585242753
411 -0.01144574363350606 -0.01904932092332536 0.003378692483338461
2172 -0.010798972729132437 0.0017093935191061992 0.017164503794661615
1959 -0.009019088341587066 0.008017041132928348 -0.019828566129037585
1066 0.004688502115608589 0.005938338759208837 -0.0037718349760796142
1111 0.0020310714030114217 0.0003376508284883442 0.00045352325944732414
2321 -0.01230528143888827 0.012069643161352513 0.0078906267477752
1902 0.03713950440181622 -0.0015895894737389036 0.0015457184401272864
824 -0.010520023437636939 0.0016889434825916876 -0.0047077633392351315
906 0.018353665365700506 0.010203017709518833 0.004767168158064022
1940 0.02913908037834725 -0.02034895876674091 -0.0007342566962006505
1957 -0.0009514730871583316 -0.009150771920449328 0.002109332744911557
763 0.0005690891395288444 0.0007603671545697409 -0.0012858446182941257
384 -0.002547877172838151 -0.005601553191709144 0.014268004586469447
2171 -0.011046757034557379 -0.0007271450774959601 0.009814713262663215
39 -0.015738744352910422 -0.001613934749608371 -0.014291258998275748
2112 -0.0132961197129078 0.005301151048381993 0.011222564163707661
1909 -0.0021852575808044114 0.002135818065312835 -0.004839823453699631
1636 0.0028879224664446618 0.006717578378390742 -0.00015047654997989005
783 -0.004056403002458033 -0.00035991547121814934 0.0016589587912864013
1260 0.0037240404057455267 0.0008400619159646179 0.0032706877056915677
354 0.00331162544995933 -0.0031022144468368673 0.021316511786805045
1802 0.009544314531177003 -0.007940859814436306 0.00561016964521229
1977 0.0008785587405431224 0.012246695261475132 -0.015652742556125747
605 -0.011163603822886978 -0.0012978179437614203 -0.008352042908414155
1585 0.0029619114661230675 0.0009223873869199453 0.007933499973156614
1459 0.004601806078121847 0.001866809462779251 -0.0035200847158143108
528 0.023651351170279528 0.023579944695427086 -0.037663938813899324
1363 -0.004235168070153334 0.007431258939844157 0.001400051497225443
232 0.004113458478300842 -0.001106676139473804 -0.004624815437366385
594 -0.001245168483761839 0.0020581337841158896 0.0032639193675702703
2287 -0.0031563254790893673 0.0034388506816625452 -0.001957757224859326
12 -0.022137402739683235 -0.0013129976625589103 -0.016239008849316842
526 0.006808668044965619 9.972317595541526e-05 -0.002124983643634571
1939 0.004331441640165188 -0.002432759822179435 -0.0025889255963223216
638 -0.00815558019721763 -0.006128745522567668 -0.020309552088366302
234 -0.00025764378487956103 0.0052085556015544566 -0.00693307607469682
1766 -0.0011885408988643747 -0.0020011582134714643 0.006909268439592374
915 -0.019110294618919565 0.0033490944688646697 0.0071901874114875365
1173 -0.0061202497135366745 -0.012783461232276958 -0.005849777223810466
144 -0.003506941587213034 0.0006728153297406808 0.006142043330929309
1901 -0.00860660058453613 -0.014453398463924084 0.017659434788850188
1296 -2.2149748937901097e-05 -0.011406513307922578 -0.008527020104797943
726 0.005469740607829188 0.009730697230168908 0.007408494387903237
1832 0.005066943695568205 -0.0005827983070805531 0.004964847895147283
1719 0.003980953927328917 -0.0117452346334678 0.011426546676481386
2141 -0.005001740820776749 0.013345972656857882 -0.007004944659743331
1910 0.005105212322483823 0.012357523639335656 -0.0030236707858286084
2254 0.008502558714577176 0.00037849164624312017 0.0026575956380953626
2394 0.008188970423805005 0.012446950908604804 0.012697346941601063
2006 0.007960362606350779 0.008630239455200424 -0.004961991871114678
142 0.0035051241808023844 -0.0031943571772400817 0.016009312595037864
37 0.006069573075895906 0.007107723001787752 0.004763923071241975
449 0.025836708439951842 0.01948749200469744 -0.0322144231331169
1702 0.0024123674508109596 -0.0019963146470635 -0.005489952517278767
2288 -0.006041537413768818 0.0024109842326705618 -0.00252435468328422
146 0.011706477906318888 0.010234923118093854 0.01381334552258869
1590 -0.0029925852318613906 -0.003475881068761577 -0.0022431025748468184
1366 0.00395864012834004 -0.0023194407589140157 -0.0043723230914635095
1893 -0.004269162987217208 -0.004744761598698363 -0.004590075322228962
589 -0.0018624898096026295 0.0033205786831966436 0.004578138356551646
1638 -0.0010032322221387381 0.01406667332485853 0.007958613959418373
391 0.0029380566801687977 0.00634677545345851 0.003964762394576455
1607 0.008562429678421956 -0.01725872375983157 0.026653717337944687
1551 -0.00388462822794351 -0.024412563349585335 -0.006193008184614133
38 -0.01600505742554608 -0.005339564559837665 -0.0121951551550012
421 0.0033442182476097282 0.0024661838525362224 0.00036621321717710795
2393 -0.00991152987331648 -0.006413779026369657 0.003979541655715958
233 0.009319266193984073 -0.0042875743721565 -0.005319000070335293
585 0.01549251617225713 -0.024954219403352573 -0.006992874268575909
2255 0.008743362998662959 -0.0017174762208472482 0.0015182842827335457
577 0.0022334805982039923 -0.0025063814868765497 0.000267219864554972
553 -0.003371628386100136 -0.000860528955127183 -0.00021190569421164785
1975 -0.00770634793541774 0.0019871100114785536 0.0014586572328664266
249 -0.014982253515301804 -0.0009161008040324627 0.0005387140897133917
1718 0.00025046277114213383 0.006368558779119254 -0.0245199243029429
224 -0.014843396146093205 0.005418284379819024 -0.010672008342518515
1965 0.0017593989516535924 0.005714959036471168 0.007308969281529507
450 -0.028098030619058693 -0.015196854495031005 0.022085838276831825
540 -0.009791647130815621 0.017239166410237254 0.015183100266905274
1958 0.019849751792908602 -0.0018250447523882156 0.007763842115882386
2170 0.0022953592886771523 0.0025092396657040304 0.00230351617673505
1044 -0.015681527687989746 -0.017195723458469384 0.002955313161000311
1154 0.018192300771168003 -0.009831933403290668 0.028277239614790842
1155 -0.002910473626092242 0.012551859547353763 0.008363105664604865
1678 -0.006368174289683499 -0.001117416746604299 0.0032702314835987376
820 0.0034770169309923764 -0.0032034497499610947 -0.0007047114984429691
938 0.0047709043462793015 -0.006414671330232075 -0.006198456639263178
1744 -0.0010136609948217612 0.0012219108538538126 0.0001283360297681152
2189 -0.004994840820920912 -0.011718101112306244 0.004567442713552711
1205 0.008048785378643805 0.023677147730671054 -0.009143680826961792
393 0.026015639824850674 -0.012856187956684889 -0.0014691080032964972
1634 -0.014368900524615216 -0.016888874108803093 0.0025024193311631833
2142 0.0014403059008367058 -0.009016746858798625 0.002159899561255141
1603 -0.006353659594455009 -0.001636629408270291 0.005108870861006814
1153 0.003471813694504165 0.0017878362456925467 0.0027266007686859873
2219 0.0066489018758186524 -0.013515064213573512 -0.0032589344706581607
1850 0.0017323093216592086 0.023758593602055955 0.00422887131107359
1873 0.007102320800926769 0.006088841138407879 -0.002420590638682822
816 -0.01601790050228997 -0.016223635101577285 0.01215557497564487
1637 0.004608552675286354 -0.00175615576152238 -0.0004674576552221548
1930 0.0027146328464205598 -0.0054359637231094025 0.0018088640613484763
2012 -0.0056403650557609285 0.007542775854861441 0.0016203798126859937
2140 0.003871209239637375 0.0036594543309598554 0.00046363094981987464
1604 -0.009700284493871149 0.01599462870886029 -0.008859591005587891
2252 0.0015437980087625732 0.006845940332756545 -0.0031458834554697035
235 -0.0017204282507675306 -0.0021921390655591966 0.005747273521094745
1964 -0.0010488687000806904 -0.0029910724566322966 0.0026666285623287793
717 0.017882783051773096 -0.017292401519634983 0.014791617749074533
1745 0.01589141934957349 -0.03381665178799273 0.008194555716346445
1978 0.003421705562586585 0.004163527886363505 0.00327648652356404
79 0.004271099108034101 -7.764451143120995e-05 0.008285411748517728
604 0.0029676768087041707 0.002773177774933715 0.006868812477403244
2036 0.0006581248813184403 -0.002991058832034602 -0.0004189022638314997
1891 -0.006774325651190476 -0.0007504556483080651 0.0013125972396640516
904 0.00354697146253183 0.003627287340408202 -0.003579851015444015
1131 -0.002330878125207576 0.005206233920898814 0.0062420671364897574
1941 -0.0009752221434743674 -0.006538633383114193 -0.015138201287773727
1931 -0.003541936292056303 -0.0004658042913746059 -0.008308365973590479
1976 -0.006884391073775657 -0.01944542154430816 -0.003208537299376736
353 -0.001902408447584666 -0.00922145265975238 0.01963001124475992
2320 0.0038371769721427806 0.005933412140830901 -0.002943731029926711
814 0.0020120004295075904 0.0006523670647452857 -6.250033546040762e-05
2220 0.0007851011382853606 0.0029321329812229346 0.016426560057354916
2322 -0.013209929534054176 0.002928910873845693 0.005534748033346152
10 0.002182667150385866 0.0012842933128846385 -0.002770345090998369
383 -0.029831365346479125 0.014351484009324131 -0.026466089773822688
2014 -0.00645273534024868 -0.0038482614037480115 0.005776030223341099
1831 0.002832522265475364 -0.0014721663601421895 0.003087619286087255
1171 -0.004901890141272715 -0.004728587620541765 -0.004966682546865945
1367 -0.0037749088325326236 0.00922187706706127 -0.012340695356521693
2237 -0.012036764630074836 -0.002611777165580709 0.011779460536121743
913 -0.004883621053355676 0.004672850067124716 -0.003998347129574725
2019 0.006545834860601185 0.00025723242647552696 0.008202828259235616
423 0.0008233948719723886 0.023172504098966713 -0.0029947536675385147
2015 -0.015739311807031493 0.005954091992421249 0.02495753088369345
2249 -0.006072036565956217 0.032093050675805514 -0.019827854903159938
2016 -0.001336037533163634 0.012327032989353141 -0.008082815295559318
392 -0.009755747665055572 -0.010845082071597198 0.014946422238223716
1172 -0.0005142327128870146 -0.002958387519056041 -0.010301564874464032
1703 0.004252731394986908 0.011093676243148614 -0.004965089236259578
1101 -0.00738354124048512 -0.011940023917346308 -0.0016856337222678813
1461 -0.020068630693902627 -0.001651900536308463 -0.008030644485605991
80 0.00755736146552425 -0.0024582210905619165 0.0014711554748894123
2236 -0.0025052929466761434 0.0028465780168189375 -0.012285215654636032
725 0.0024455499572035534 -0.010334296995074606 -0.008744605558550824
1279 0.0050819303040395385 0.002762562331747914 0.0012087738338773027
1112 0.0009817766918543058 -0.014748040649874516 0.009813488910375033
2256 0.028677634012001373 0.0003332325022222009 0.017098371792338415
578 -0.000962754012006878 -0.003358467718289822 0.009088432142758968
1588 0.003717050144620353 -0.0016063340041567377 -0.0035561813377962184
1042 -0.003180328850785223 0.0026370649438860034 0.0032503075149228743
11 0.019511812965813786 0.01171884811266895 -0.021547921627279303
584 0.014317994814081848 0.02252438507954637 0.04397842047413351
846 -0.0035217349987587297 -0.0007992323127100434 -0.016578007822142124
236 0.002569349942287361 0.0149732090381941 -0.00011436991595795674
1849 0.004482181314289514 0.00416163939368139 0.0036273315551790266
1365 -0.010383191945535088 -0.032903206841115355 -0.013875776453190413
2218 0.004559962234301929 -0.005663786823125939 0.0005221408938621855
2343 0.0025041820412192123 -0.011615632533198451 0.009071684053245153
1765 0.004302652191858797 0.0010834940712313279 0.001798915182956431
1206 0.006821437208635624 -0.007162429504899259 -0.0125117732133028
2007 0.0031674026164549285 -0.01739179480071446 -0.003949480918848741
2013 0.0035458076867895473 0.0003830310681064826 -0.008102391617658205
2250 0.012929979072032931 0.011496069826297023 0.01750746045376878
2037 0.0009804538875760802 -0.010683352341210544 -0.0029072030839988276
1801 -0.00030651746496500575 9.281752320867242e-05 -0.002217658278612091
592 0.00513504150110325 -0.0008456716193908789 -0.0025296113128102544
2100 0.002269900574052828 0.002940489113735061 -0.005462646241010746
554 -0.017303896173563243 -0.006014770019319731 0.010770039687126289
409 -0.004166015611562571 0.0017671204906586368 -0.0022906967093036454
448 -0.004673698755904302 0.00022586238869419032 -0.0028466428222797832
1043 9.062059066031283e-05 0.006233441317339447 0.023751257689799514
2018 -0.016662444998790663 -0.001531165740132951 -0.005115892127099114
1579 0.00564488540536725 0.005455456339483623 -0.0005583396215135206
422 0.003822954279157047 -0.007555107100999893 0.005495090973669178
1895 -0.010340887581453078 -0.017751413123592814 0.012827486677322333
1746 -0.013887093289076332 0.022031454033796402 0.004568203667568107
1894 -0.006486593137716385 0.00022309224715528337 0.0011920392684599084
1874 0.014255414230115886 0.0012980644692112367 0.0033877026536735153
1099 2.3998119029316173e-06 -0.005202238741547541 0.00031235631618568594
1068 -0.0015208720549783799 -0.0114724504431365 0.034080614702136414
145 -0.0013648011545522405 0.002286969764920483 0.0018026659015145676
1932 0.014718663616624588 -0.0015145673865239447 0.0002574234858509642
397 -0.0030089181444632645 -0.0067260421853964246 0.005623954949125601
639 -0.00320367902295882 -0.002007940335405798 -0.009909425847449
765 -0.0033585506198502138 0.0076961409508275735 0.018847099888215712
591 -0.004201117135648441 0.013381741638664537 0.008228599925136824
1587 0.013437237589821783 0.00960148384327774 -0.00030013547268258143
1633 -0.0017589823158524033 -0.004156899626265108 0.0034988698553022717
1911 0.010111853139224105 -0.021897436079746996 0.04512682237733042
715 0.003251041394980064 -0.0023337221464799314 0.003441210792311027
143 -0.01486584158891162 0.007717364387310718 -0.01647629015522277
1834 -0.0029280926591093545 -0.002560570755314707 0.000749181809818518
822 -0.03432900081322187 -0.020069899069740178 3.320241209277617e-05
1680 0.002370805047693852 0.0015755659937684303 0.015691730650101654
1892 -0.004561897570974552 -0.03538657435508082 0.0013704364834229979
81 0.0059258274048444625 0.006899514218860411 -0.015621331656114755
1259 0.006639344146541059 -0.0006822711396291827 0.007557583933918839
2035 0.0025067443990305755 -0.001238200647999239 0.0020583577875151328
825 -0.015215898658627044 -0.011626466325263962 0.0038969989942327743
821 -0.007701147397634706 -0.005792611612960429 0.000765553710556305
1586 -0.008535860512022306 -0.0007799730688466073 0.007816645132413423
1704 0.00021786437751374565 -0.025792928152362397 -0.004331707480664285
2264 0.01769723758713036 0.006353482394489103 -0.010486911859243199
593 0.003916286444888164 0.0027167629661108794 -0.0021917010360252573
2265 -0.0010282992003954711 0.009066094268552925 0.019663895808961895
1067 -0.011029514360407264 0.0022767649143221194 -0.008683568956140612
1679 -0.011114123290091428 -0.015508677423499567 0.005179124066528499
2017 -0.0048225121763063525 -0.0009673003106166246 -0.006646262443974599
2199 -0.01302365087441136 0.011817264631072319 -0.0277972535572617
82 -0.0004755361827776628 -0.0010878970381660597 0.0012841015139712592
914 -0.008760602104613751 0.005617910177891913 -0.019661023628594763
737 0.0030040347378551342 -0.010171649507047227 0.010623619779520846
335 -0.0009565919842549789 0.018384531817433644 -0.008713391697935993
1833 0.010215004729465661 -0.013753002351137392 -0.015034963982892745
399 -0.016748937517699892 -3.2029462199883924e-05 -0.003250439699484994
237 -0.014475469242534721 -0.009410422410586693 -0.0022428039556127628
764 0.009050828592120043 -0.02011333087530673 -0.012958524428306296
1589 0.0014668476799611697 -0.006416173500252387 -0.0027877389264620313
724 0.005043046740368395 -0.0067286022164838215 0.0009244078825488009
2238 -0.007180623444782818 0.0064716681647377945 -6.892123889076452e-05
539 0.005050452656180169 0.00547841979554654 -0.0018847864662835613
1390 -0.0020740410575527577 -0.0012817663282048298 0.00044412868214334996
2176 -0.0012105995388882558 -0.008589534611382382 -0.0018654804388339406
823 -0.008666106936029847 -2.185413229508156e-05 -0.004728431604635783
981 0.0023369057671430715 0.0037697677871817823 0.004296616309105837
147 0.004887639795813915 0.007924375894161641 -0.01993213625971537
979 -0.006665169258121406 0.0014419557905018016 0.0030371617079010056
538 0.005635073063182175 -0.0004919814777134201 -0.0032409798228830704
2248 -0.0034754285600694574 -0.0020226163259773737 0.0001782622308271874
606 -0.0018013810237496066 -0.013019157020169113 0.02105757888346364
743 -0.01097831712587436 0.002851413928540673 0.012411536673264419
84 0.01478761703824352 -0.004048538260916854 -0.010996413931299761
247 -0.002136686816269843 0.004743278192849048 0.009166723929019162
1368 -0.0011687473375927584 -0.0014161081202240895 -0.0035671829863737365
410 -0.002789803564439782 -0.009301354727901117 0.0073804960259140845
716 0.0035342759536946752 0.015543562095232269 -0.057535505041229576
1979 0.007359941048771433 -0.004781424853250297 0.002194437869281258
1717 0.0007047218737374585 0.01051918428643339 -0.004432930375414452
527 -0.019616575051402112 0.006421667973154666 0.014497274007404885
601 -0.005613746304235382 -0.004357158631980373 -0.001250144486375874
2005 0.003588287747732407 -0.0019031052697984052 0.002124507501993868
1851 -0.013224473533774494 -0.0005330821622200969 -0.001557194041342207
815 0.004796371699376133 -0.005414390026985372 -0.016784324048936768
1835 0.006308898852756476 0.01819007331750212 0.005374702332302205
742 0.002140868550083836 -0.0007127109235296496 -0.00606349512627884
1605 0.010404140220875322 -0.009907901530324715 0.018942747112220326
637 -0.0005028834866223107 0.0015082361390561976 -0.005984860054572476
2392 -0.0014502196474071671 -0.000544293445343991 -0.003539944081490493
1900 0.006303022278898065 -0.0006917806313246884 0.0012367404139712096
1980 0.006949047561419005 0.006683477134850038 0.003386851268358327
781 -0.005437924790634575 -0.00290001523231508 0.002841904588314267
2190 0.007493930080059195 -0.0014922544937175113 0.009641707894350895
583 -0.005587191263981251 0.0038789492271848486 -0.0013536861362081964
1836 0.013493362875487826 -0.013106364563795563 0.007447940910707455
382 0.0009947002817364472 -0.004488336637747812 -0.0021981756835105937
2098 0.002222667781331713 -0.002707468425418653 -0.002621066260699934
590 0.009864980309260344 -0.0014204673149029823 0.016544285066593178
1280 -0.022136256580018072 0.007995689947197503 -0.018550919174986576
1803 -0.00443865609938934 0.0021115055369282966 -0.0036308677583177986
1281 0.0016182132295102386 -0.014054035264718288 0.01917068398748825
693 -0.004457687695767071 0.010413842444575381 -0.01565887424236175
744 -0.010382134171541295 0.0047593087377803414 -0.0020258661739674002
1392 -0.0018864608379902908 -0.002258621977570252 -0.002766962586308004
2197 -0.003937793856343278 0.004001599489106985 -0.0005096230029107567
2198 0.00019360609691288373 0.003997231356129014 0.008249669455469878
1875 0.006193517258615816 0.014426599808227414 0.004213760094737334
1258 0.00047986969293737557 -3.61742736920437e-05 0.0016416945354560013
75 0.001388236065188235 0.0035478415218789896 0.019447239682042386
1963 -0.003476644880324264 0.0002554432838860141 -0.0006464771069151766
2244 -0.0017363845858109806 -0.0007975031692916657 0.02991794888396861
1684 -0.0014872520153718228 -0.003978816499294042 0.003068536103840997
1204 -0.00038050519473772736 -0.0041055322008773446 0.002544718779826935
1606 -0.005405094224509591 -0.00576542389299125 0.0007677890902751507
1581 0.002061511056083409 -0.00015442095222157948 0.01614028977169205
905 0.007156889755553034 0.0020842135172627926 -0.003594437872744476
980 0.0198849051409379 0.0063410636192762744 0.0086459622824044
352 0.004572175619774631 0.0005170268279297895 0.004048053885127215
217 -0.0008056960779671867 0.010324462699736147 -0.0019290502557956582
603 0.010994260835234592 0.010879927889462295 0.02202009956545353
1549 -0.00010855578665853251 -0.0019286665275898187 -0.0007772404785945762
2058 -0.0035661364732275137 0.013396328667196235 0.019248534428028975
1391 0.0025013281800431546 -0.002450223587749554 -0.010859598571088869
1983 -0.005229095607514712 0.011292736110432787 -0.004120084862758517
1100 -0.0038650520707341116 -0.003272663424920369 0.0030089983909645755
444 -0.01772984915947162 0.020145297948330088 -0.0016580440614593279
939 0.0037505867335645535 0.0018597509247983792 0.004708886141163791
648 -0.0009436562850965683 0.007298647629374406 0.004190939548173039
398 -0.003884982413770858 -0.0018923749914990988 -0.00769578680611885
1896 -0.005619507275986772 -0.0023627510009825194 0.0035380940577867236
83 -0.0021537962127124613 -0.014010719492611724 0.009553645083281107
2031 0.009403103985921509 0.0015692155994106152 -0.01517718585486254
2178 -0.010800916655512386 -0.007579833324371515 0.00461903382142443
692 -0.010799287783327246 -0.009668740541595873 -0.017563584352464596
2243 0.005529584712515006 -0.0048539022401218644 -0.023743564269529848
1635 0.004340668666141941 0.0011001143542007808 -0.03629427071398258
1913 -0.018183573803051214 -0.018813388717788516 -0.012631786516608021
602 -0.018255015119488027 -0.004364746599873818 0.0006931960790028573
2073 -0.0004221381137373011 -0.0013900491590460211 -0.0045682818410355645
937 0.005836869257597413 -0.0042344683245169 0.0019526890012605165
1827 0.008432432237722396 -0.020967932806339046 -0.004078117115643915
1428 0.005256735399439269 0.013893340924775718 -0.014707872421335108
636 -0.0013782085930298593 0.006269450079844389 -0.008671641325607892
1728 0.003957825095168661 -0.005035442567574161 -0.0022730020745588128
1174 0.002922344651877858 0.0005367209568523676 0.0019682762171732526
1982 0.009966916624726872 0.03567919458321041 0.003504327295047214
831 -0.0031691214938039934 0.014277726252885585 -0.020109923137662793
1508 0.015911413358554304 -0.005083724336300522 -0.00823915309951316
853 -0.001530502796783939 -0.003061154552018411 0.0018845077319047995
1574 -0.00026839324717360316 0.006965621678722803 0.0014954869106144919
709 0.0063392976463793145 0.00458272346690688 -0.0037628864107518353
141 8.08829920200054e-05 0.0032493180075466232 0.005010945017039867
1064 -0.0043124760705697054 0.003460393209388771 -0.0124622487298076
355 -0.0022692837817644067 -0.004490737471919421 0.0020987066082149577
634 -0.0016441440575649354 0.004738102545672664 -0.0017375461857780518
351 -0.0025313150310623503 -0.010001169557040666 0.018497490639247913
428 0.0065595092741338595 0.002058278391984541 -0.008204111717522928
2167 -0.0029114531686378685 -0.0037339369222184208 0.003944985842894154
129 -0.009454751119791924 -0.010687986382633168 0.007351957698028576
465 0.0029926496823852265 0.01221848864888312 -0.0025087698348670506
1773 0.004648933988517941 0.012145273573783812 0.03396042855765349
463 0.0024708566348654007 -0.0008271171226791305 0.0016602508795641943
140 0.013332621004471188 0.0008652659451266147 -0.009619310243617916
747 0.0016035794468834963 -0.0035209101359619517 0.004021776073964944
1423 0.003842183090668385 0.00136998293699658 -0.0006455441347346728
2107 0.0017569110544332221 0.0031005056780853673 0.0024186613496644505
803 0.005062997614939567 0.0027071227028566416 0.005102022539074391
1785 -0.01856570623893363 -0.010067930114243227 -0.0037699620304525307
36 0.009597721294165968 0.004786250886785686 -0.002964491971888844
1757 -0.00812643567765528 0.007219085953963254 -0.008463772615239822
1170 0.004523416034056572 -0.0272139220576943 0.010651805436550138
1424 0.004449676973706481 0.0022939703409021587 -0.002019369730799511
1908 0.007210333265594192 0.021011595854697793 -0.014178115465549486
722 -0.00755862053467357 -0.004165876220869544 -0.000741775621979963
2084 0.013707816442396312 -0.0003007077410146533 0.0009537935530692269
435 -0.008068736063589717 -0.001671167699605055 -0.01400660544964545
1562 -0.008098577421020202 0.007014084361665432 -0.012684373158152663
851 0.008835907509823795 -0.004191596385735457 -0.0036126218320123096
417 -0.006185654428007158 0.00024137074112172944 0.00795449362786829
327 0.0006311384847442678 0.007165980464859923 0.006482315192973918
1990 -0.003018523709550466 -0.007982174456379517 8.072050906152273e-05
2111 0.006325322993623354 -0.006163742278306273 0.008385066922304353
2108 0.003246700468561493 0.004951029407609285 0.01075246708784944
880 7.724078795372763e-05 -0.0014751650266569575 -0.0058405309924819925
804 0.011141067739095688 0.0007898277091998985 -0.03412794070550826
1756 0.0007219011486878614 0.0010157329105483332 0.005942805786748395
834 0.01741636645925328 0.002890295620888168 0.004913929604640193
1168 -0.00028896606928677693 0.004234426644899839 -0.001551178476582204
2083 -0.0012214762747050426 0.0006707043577853612 -0.0012571043072064768
201 0.004212720850797429 -0.0013645867648328965 0.0038207819258914305
1854 -0.017744135019297055 -0.018246738964021816 -0.0064350081048013315
1483 -0.006994794921691842 -0.0026110945826682166 0.0050066911740291676
1654 -0.003565901510711522 -0.003746399913129235 0.0010891589967914775
778 -0.003123186404319873 -0.002864266722792676 -0.0003098738598663334
1750 0.0001178028298612127 0.0035644576778271855 0.0028643219664548354
1507 0.0020429682436016996 -0.0017471269649153123 -0.001726169789050518
2270 0.000948483688459925 0.014221221493009719 -0.009180842633645506
1425 0.016319228174664063 0.004818842249092562 0.0004765863218244246
486 0.014493393926154775 -0.022913014054207502 0.00685072920197143
1262 0.011541115590001405 -0.013360362388104133 0.005173616315325886
434 0.007414493664927264 0.00874777758444137 -0.0010714026485075076
621 -0.0031470520848506252 -0.007313433984474834 0.003424027941907053
2135 0.003047624633414801 -0.007020285816824822 -0.005069637196584137
321 0.003553309936276501 -0.0027882843596311086 0.0026112389449250667
1906 -0.0006969652795258552 0.003011713382711798 -0.0033728519187485335
406 -0.0006953516317160354 0.0028635036966917988 0.005790862633266752
1263 -0.03458936725445835 -0.006477065195749381 0.01873984636353515
2109 0.013937150079687799 0.005696457198813516 0.011597968658599115
542 -0.00726813504936318 -0.008660609644215354 0.003216599318070965
483 -7.925019370343445e-05 -0.008990873370746198 0.004405254537190699
67 -0.0029556108518405066 0.002662709425998319 0.00548621679149608
2110 0.0004526749718496215 -0.0038395531758517332 0.005525031918929593
2180 -0.01672887157770759 0.00012155540608820337 0.010375407312861176
113 0.01129066685866799 0.007104754483403588 0.01651886098080625
284 0.0010511210371365364 -0.010751387107756378 -0.005374243294317448
1793 -0.020061850220691315 0.009680634996345232 -0.0036501191300702686
65 0.005596628198351034 0.0013293000930643373 -0.01206630872810741
139 0.003273990870565889 -0.0006253667426159564 -0.004381336230523673
1113 0.007539321359937225 0.006573074669885404 -7.958139497807928e-05
1261 0.00574471643137202 0.0020535186443731085 0.0006774719685401319
349 0.00018813576703609447 -0.003599969765550546 0.0009218936108520793
652 -0.0005386839036351094 -0.0007190790617739777 -0.001264254109930113
334 0.003459006698410178 0.0020626576884087548 -0.002780460730872943
723 0.010798576056174557 -0.0027081611113380145 0.00384591495306432
1120 -0.0026260509064462492 -0.006487348298111893 -0.005453683694592748
170 -0.011712015826011913 -0.0004411984138904735 0.004119735942882604
248 0.014076509426176304 0.0024981093578632036 0.0005876474967586001
246 -0.0007463709033026378 -0.00861400261612617 0.00396056578306314
1752 0.01516146206151841 -0.005738636780467052 0.010731855532836223
777 0.0009243649617495372 0.0017162687069986699 -0.0035248454837727007
854 0.009615037636077385 -0.0024586436163278333 0.003633243671465222
89 0.004958027708819795 0.0033768546440708235 -0.004733869059710919
950 -0.010459845831693721 -0.014371024394129937 0.021520412651860315
625 0.006861772021161187 -0.003539532393630979 -0.0047316883281330055
485 -0.010679522849251222 0.002550793566833841 0.014511118335195382
949 0.0017430503053241894 0.002532702281963124 -0.0028216280210372055
407 0.01780160759015485 0.007428443225443998 0.019690148350397087
482 0.012518897652615423 0.005999089956619636 0.0038620472005181958
645 0.004890340637591788 -0.011079255877745857 -0.013552784381484538
1065 0.005461018138702414 -0.0008058176445646152 -0.007679271287533135
1485 -0.02023011003793151 0.0024915491073282435 -0.0041452482394090115
2047 0.0007516454048264563 -0.002722664799108331 -0.0007906146341787252
1726 0.0046234121748693225 -0.007861525528654534 -0.002841840245495786
1792 0.008602986496049396 0.001227913988732248 0.003290439874469605
710 0.011400410876665308 -0.0002336777388157603 -0.02526590597659765
35 -0.0017992712273500772 -0.012549082663164856 0.004441092016251323
1350 -0.0182002440958721 -0.013672282990876512 -0.0037163494740376567
833 0.003916888540513244 -0.010636872270192409 -0.006462204274992112
325 -0.004723060076083536 0.0020217395178233535 0.00029686041793876896
2286 -0.0141944017674295 -0.008379405406372931 -0.010210188368303341
1886 0.018495693434485982 0.004266000373837244 -0.006961924223096954
1656 -0.018328537092355067 -0.022865343624620265 0.00037049647063287436
881 0.0031207561728297463 -0.0004490363312130809 -0.006413450486351625
2347 0.0034329896866159334 -0.007326293256775168 -0.0017946637884229384
2349 -0.002753449862357075 -0.026818273208960963 0.012524180389105287
2269 0.004528773911899075 0.0031288875498980827 -0.0025775894625656255
667 -0.0003187887407739968 0.0001579115425680223 -0.0023762902424814265
128 -0.013782210512884821 0.015434556378891125 -0.005973728787188149
668 0.0012850833435624652 -0.013076411721777264 0.016679312164335738
779 0.006976447129223103 -0.010568189685944493 -0.0011595800786912923
1798 -0.0011660468971792155 0.0020518148649851194 0.006355582226912834
26 0.02001785439845119 -0.005111834960366378 -0.010183958724144227
1924 0.003170381679824302 0.00018423504337387222 -0.00024677623097792313
565 -0.0011066438344935305 -0.004730605669295143 0.0005645445354124981
746 -0.0071797842647997505 -0.0011121585579318032 0.003612348726218282
1925 -0.005754445094738942 0.0051999864485756005 0.011178922849761396
1898 -0.00304744727595574 -0.006963071768483979 -0.015585983041330714
1176 0.009125245281259145 0.016918190300604246 0.011768116384795788
1995 0.0036458467582375616 0.013577152864802017 -0.0023945674574883144
408 0.031123417094744026 -0.007079576367688457 -0.020456202179138183
1122 -0.0032431416198489575 -0.0010429126277512627 0.004436279001912393
1566 -0.009327752804082913 -0.02167014863537354 0.02771563683944131
1149 0.003283934442764168 -0.00625345188758546 -0.003978500636367088
424 0.00010891488566756732 0.0043702968374605975 0.00024888972644854164
2134 0.0024787145869570766 0.002073697017266801 -0.0058157945606721806
705 0.0008941180714017435 0.0059544203805927684 -0.0113773224664633
427 -0.0020971087063031925 0.004810182694249328 -0.007986304455036664
850 0.00480010515821158 0.0018594532531568566 0.0024187014748244372
706 -0.0011373173475391766 0.0013789397204849471 0.0035700649284576245
857 -0.0003721598766574209 -0.0031164250468175697 0.003263834849361932
413 -0.010464151222373033 -0.006142906486027674 -0.009482998855630531
326 0.013553240339414244 0.0021760732614505137 -0.0004911367770978899
951 -0.000523757142207086 -0.0002751543003805571 0.0038212032368363214
1211 -0.022895085568081078 0.019217651188609915 -0.016968847661223706
375 0.005059640154530445 -0.003772042774659399 0.02541277831087516
620 -0.005105708139943446 0.0002151757311488462 0.00866903846015074
433 -0.004716463311458822 0.004721526315975948 -0.0020049143574298145
615 0.017660246048843312 -0.004210364859407931 -0.00907228506769299
2284 0.005761500398669246 -0.000973931293507252 -0.0015924642371558217
90 0.001095236726316683 -0.00559320694649477 -0.032635546076329826
1526 -0.018970909650408842 0.019631582437773933 -0.005191845652484076
543 -0.006447346744562332 0.005512030328987897 0.01442766415568233
1210 -0.004437604270170923 0.0031556724081256184 -0.002414163347567274
374 -0.00012336191673645023 0.002088980260229447 -0.005150498744286366
267 -0.003990968290585579 0.010142118930387401 0.005308407603941899
1787 -0.01841403764805267 0.024505519621382227 0.004905321785726331
429 -0.002857235049014496 0.004944625902084947 -0.007943530647229571
1771 -0.006410313327725869 0.001168550671343229 0.00021604815963589293
1758 -0.011495563928382158 0.010986542159251442 0.007244786745277352
1629 -0.006856993742845261 -0.00036874485783035374 -0.0009027878557312325
829 -0.012293580869954752 -0.006086509097959307 -0.0041381194560399384
780 -0.020931314326030362 0.013479527638864916 0.0010712406167347741
412 0.0025931836863070743 0.0076512876329990435 0.0015970788057624366
1373 0.0018961349503131733 -0.007286337411853668 -0.013148220672470746
2136 1.1861151629931786e-05 0.03279137994817634 -0.008362440346513898
703 -0.0009451617662624007 -0.0015414704066403111 -0.006915994859408855
171 0.003806628920635797 -0.003889814676598166 0.0007686961566543672
1169 0.013707368587815209 -0.022536094419400188 0.010589713778853715
1348 -0.0005211876122384194 0.0018397274145667843 -0.0024288957192437266
340 0.0022846346819333898 -0.006139952956580082 -0.006393541513635354
1472 -0.0007478322680538378 0.0007463232035051642 0.006462562830861906
2331 -0.0224366814365517 0.001919223082750998 0.002330192551945477
619 0.003096825238001498 -0.0017550846489344048 -0.0019115273252528
298 0.006245116216269455 -0.0014683208160260175 0.00016926046319589997
69 0.008391558820538596 0.03254889163348986 -0.019576784709342758
1857 0.005978769999937402 0.007254388898692746 0.006870479971259362
299 -0.009832745051227243 0.002257034142635411 0.012284054725341978
464 -0.009376711346289106 -0.013300908097093618 0.007777995209382691
1794 0.004021312776209291 0.0066742253156233744 -0.0020352140991552704
776 -0.011866378939805943 0.0033763308696091268 -0.0028898753843058346
855 -0.023543172015424017 0.016901799570584606 0.00729995682465406
357 0.0004358369995782306 -0.024850278258468556 0.005915592019794572
1473 0.009075178504850834 -0.010720338073060274 -0.0030338678921175166
832 0.00323339544415898 0.0001285804187556155 0.002559096536236024
373 -0.0011782251022161873 0.003035065252813099 -0.005488399800123359
2048 0.005603435165104347 -0.007718636663882848 -0.016605085662585062
30 0.009488430867313607 0.02384639900526707 -0.02316302270359008
959 -0.0029195670197718106 0.0022401237140883814 -0.0007168352013960079
626 0.013221879682810533 -0.008487600222495659 -0.012968574791757332
852 0.011682661965592415 -0.011240591669279742 -0.008319820306621123
244 -0.0020726584352073417 -0.00332232236685541 0.0026960186401960677
266 4.1433534445314936e-05 -0.005676789896663832 -0.0044902370877560336
711 0.01627411451185178 -0.004163935258828779 -0.029464094541628898
1627 0.006045279310789957 0.002421302699540145 0.0012623702327625964
319 0.0021282710115852837 -0.0019196982710137779 0.0016754824191253092
200 -0.002072877839270566 0.005897958910132121 0.0017774593318862788
66 -0.0012903868907016413 -0.003849955338343046 8.890797684750277e-05
25 -0.001010356701859591 -0.003233236739006252 0.0013558982246849951
415 0.006691875156407742 -0.0016192522958102 0.0023792469926224562
1564 0.0013266924060593072 -0.0009155363055501019 0.0008121784999844214
1951 -0.003107846224192368 -0.00392465784715516 0.0018121177635270582
1853 0.012777868517374807 0.015558360940516682 0.017952758335200013
745 -0.00503992973137937 -0.0024765556600122893 0.0035434859592043456
1655 0.0045706488819560335 -0.019148187600321973 0.013853348823288366
1471 -0.0014143567970079682 0.0005336082259314385 0.005941068345038184
2330 0.00010695241971037415 -0.017492384666549416 0.027513437493277514
350 0.012695443261474428 0.005093441531279109 0.005405344958083045
2271 0.004155666963077785 -0.012793024482893838 -0.0063145878557230575
1349 -0.014764512988828938 0.00502632349974331 0.0069459632054625535
721 0.002619675415690208 -0.0060778149343854145 0.00037125699356489766
1212 0.017335243308172814 0.017322932952749833 0.014533377998579348
426 -0.015567114093153733 0.0008180300129517769 -0.003488519326566633
1525 -0.002120020049196675 0.0017117482956095342 -0.002319209982467337
635 -0.01646090606039898 0.013274369096050665 -0.00930448337709204
1784 0.015010529020845232 0.0026022824204714363 -0.016775956356807446
960 -0.014806522348013544 0.0007238535502391043 0.014070568478435939
443 0.012226153671096583 -0.015048852581492043 0.022740729898535622
64 0.002438741681697259 -0.002221817265489585 -0.003527705480324431
1063 0.002268454557022542 -0.0025948882662919673 -0.001115486505664595
704 -0.014667330658513725 -0.006093301137484452 0.013421384419907
1484 -0.007307469753069839 0.004656644448318505 0.007359794686602852
68 0.006756722285263053 -0.00010006381968311933 0.01708950519466236
1436 -0.0034101672344272337 -0.0021951024441858864 -0.0040189260387645176
1783 -0.006562416888546218 -0.005081944767339325 0.0004445191110258331
481 0.0015582488255504482 0.0017445587546086841 0.0021926118886264868
1994 0.004754958715088624 -0.03181534617541648 0.0008814136534856622
1727 0.0016307846435504763 -0.00869471388361306 -0.0032225740390415007
1751 -0.012315717523266172 0.012715136948630336 -0.0033104572822352913
336 -0.00399781749454858 -0.0134944118123928 0.01946363731230273
708 -0.0083161404864262 0.003442667329100852 0.011448453405957853
1926 0.009218737152857755 0.01260871454800986 -0.016135481114550196
1563 -0.0009152046181821941 0.009359739273754804 0.003850270909443438
34 0.002706888488717976 -0.0070599672786715315 -0.00675648914689209
425 0.020873284487036344 0.005946081435769483 -0.00111035242189045
802 0.005245869670336468 0.002364206454755014 -0.004668599381628938
442 0.0021282457894535338 -0.005107402331961657 -0.0006208190210403134
775 0.0016248764624349577 0.0005443873062273267 -0.0021902002626945838
958 0.003834653050809813 0.003658999224055949 -0.005537078076634246
1148 0.0008148023225170503 -0.006700888160979423 -0.005838545453781378
29 0.004966521659102024 -0.005801155351499046 -0.00949607466940075
613 -0.0035988530771910525 0.006963684428754318 -0.003242202352713304
654 0.007095144033355976 0.0009413328655086162 0.008071801720833906
669 0.008950523582389035 0.020793517192877732 0.016696085292625482
127 -0.00026845765314660743 0.005003129861821027 -0.0012674022109031512
1561 -0.007018223666333794 0.0013348507444434863 -0.0027306488247791933
1899 0.00014341154535214463 -0.0009198794596063276 0.019031272617566382
627 0.01150106701988335 -0.0319718813554129 0.01632082105489338
1897 -0.002830748964688951 -0.0025353046218843174 -0.0016144701574891955
28 0.0015504040700126092 -0.0014805754803925099 -0.0036621248917265447
1509 0.004400945518006657 0.004925910759592822 -0.004098155664906472
199 0.0006166352689476824 0.003633387490358734 0.005297722091743418
707 0.0007487549741546453 -0.015628635273820097 0.003666816737724172
1852 -0.001976912681747512 0.0038179723991791843 0.006677022959681622
169 0.002568413853770829 -0.00540453296177715 0.0005593232162078407
320 0.00012580452037975028 -0.0007510970236189041 0.0039013206714911763
1993 0.0026885946225253888 0.0034756217530714116 -0.0003706846456159285
1648 0.0009523228049238622 -0.0015465850509388671 0.001406451501552549
27 -0.01408401585056584 -0.021828590690715327 0.003356918701930611
882 0.003070688792902628 -0.004901852944593967 -0.004197434557748342
1527 0.013886972383947295 2.8646712442424618e-05 -0.021733878748549065
656 0.0020162910703420247 -0.002083693953720492 0.0011415939278558965
1772 0.02368969624165975 0.007012067857117214 0.011575593227286652
2049 -0.0034132343904397467 0.010949292218635252 -0.006157373198182047
414 -0.032659658469505234 0.0015775253435564608 -0.03301401656790143
1175 -0.0018495503283073645 -0.017344481032914888 -0.008544652423918912
300 0.0019486682903456093 -0.003286118122270545 0.0013493794129443343
88 0.0032528448562771685 -0.003828307026342579 0.0037031361726999
653 0.01228378662784323 0.034422948565276716 -0.0063538728873736485
1981 -0.003517459590180606 0.0008653436379905805 -0.000728960604535864
614 0.0002769178215488899 0.017574030430116416 -0.03503667151803686
2329 -0.0011388662536587137 -1.3329960406077871e-05 0.006252302072268607
484 -0.004813676231154359 0.00223577125903348 -0.0016496198146753265
416 -0.0011171870642427257 -0.0002941320419603276 0.005934537181684431
219 0.007920161337298578 -0.008800672038427345 0.0013271910979233293
1650 0.012415435185553823 0.019765285795509954 -0.007851921284894637
1147 0.002413774199899442 -0.003964309501143101 -0.004827363781892289
245 0.0062033905349040816 -0.0101205902499195 -0.0035959108469438778
265 0.0028750018327428468 -0.003971227283520852 0.005543431874739171
541 -0.0031811927001260286 0.002073488496197487 0.004915046489514754
1907 0.020056186955674203 -0.01148634427037855 -0.004979954819693377
356 -0.021063187126535602 0.0016829074360896292 0.01086888202354734
2085 -0.0071826111466997316 0.013255745572832035 0.002004508128333939
1364 -0.006391537139105334 0.003663558034479611 -0.0030359862681154114
1628 0.004511023156694871 -0.010625127674497149 0.010567614500677527
856 0.0044307949105889775 -0.003297338759901788 -0.0013573862155271453
2289 -0.0013741705418450758 0.0013203075429897545 -0.0032094394812859283
830 0.003649055304699723 -0.0010272199978810215 0.033283652537384474
285 0.0004200547048268325 0.0066717403001826285 -0.004673070486394748
894 -0.021607129587981506 0.004503557857902497 0.002728218169391074
2169 0.006558827956387224 -0.01731438980511994 0.0014171070851289038
1885 0.00016503585733375532 -0.008492931058396535 -0.001981430627947763
1953 -0.003077514640042372 -0.002795591695731238 0.0019914758137221824
2285 -0.008259909646326315 -0.017497485437353702 -0.02525970502268071
218 -0.0012703058374460183 -0.013397512827780525 -0.02476377076439211
2120 0.022981684297153665 -0.010224876944275148 0.008732851732508741
1275 -0.01953213437827352 0.00492871972608881 -0.004870862361560313
358 0.004564174697797903 -0.002451558738377188 -0.0023433115508450855
2121 -0.02210748641083603 -0.0022867668703910825 0.027286041424115032
57 -0.005233091290618548 0.00814819544160697 -0.004003870282994169
1003 0.0012221383363653139 -0.005902191286569293 0.0022502413061631686
1311 0.011883147113424808 0.0209912317274299 0.0009507632015659028
291 0.004055895328143217 -0.008312953139204535 0.006078151375649442
1005 -0.002091743752923459 -5.9897153997348164e-05 0.012630707856238356
2043 0.002567314717775357 0.013562285910923337 0.0028589350066877033
1293 0.004442046077395401 0.010076268479857162 -0.012275414969152715
51 0.013915600833086779 -0.012744329026594337 -0.008725268833774447
316 0.004740754685564895 0.00632455763597262 -0.0018478976568450931
774 -0.003513394144015956 0.0032860196457155373 0.006282147424255893
757 0.0014253164094379326 0.004038095657864978 -0.0020396730347186764
1032 0.003154791189772002 -0.0031530709372001925 -0.007633727713283416
1057 0.0021253499198997357 -0.004637937745223038 -0.0033056344713077394
987 -0.009256639761923847 0.006127595260796548 0.016986557684360578
2215 0.003673631104929821 -0.003969351988218926 -0.002102774014414297
985 0.003965686487067018 -0.003708276253267646 -0.0023595380832691372
214 -0.004578854187168619 -0.002275829079650887 -0.002812413863662319
1071 0.005705924195338079 -0.006103950989049081 0.010707581187628466
1399 -0.0004366628845987085 0.0021374663466210988 -0.007532132737878602
2129 -0.0029137950290388467 0.015698663076233757 0.006605796487858497
729 -0.008797956657334252 0.01603765484447551 0.0015089413138838332
118 -0.003216200587692776 0.0048718935863235596 0.0001352697107809209
1539 -0.00014487741213279405 -0.0013722591624785673 -0.002168042059353693
2310 0.007280247660127886 0.02170874211426095 -0.021669308550633194
1294 -0.002207675307785849 -0.004479813555055452 0.00015514341095700676
945 -0.01202039484538208 -0.014218996022948236 0.012983961916759707
1538 0.02178013248583827 0.015573172645055334 -0.007762592520776822
1045 -0.00011143220587559023 0.008459152011182778 0.0066965637704240535
1302 0.009477443915159055 0.01101720158041778 -0.015588841900721177
790 0.0053378702504687315 0.0017245217432344225 -0.0048677742096503
1273 -0.0013802659105072255 0.0013956211437194637 -0.005242885273494361
1292 0.0018699048067789144 -0.009136233655280048 0.0024489920595704736
1553 -0.009406987271494315 -0.022632975468395582 -0.002910980381092086
940 -0.0007346097938344221 0.0026102700827151594 -0.009231822031454057
2361 -0.003408188747159341 -0.014165490189363687 0.008357023803388187
1106 0.025527367813429482 0.007943423272240681 -0.00020253168842149328
2021 -0.002044933607027173 0.010187987335268999 -0.006096001834339501
546 -0.002413874219571051 0.004341012030416436 0.0019885276002349476
1820 0.005161398054416492 -0.0035969423550915747 0.011068027107520846
916 -0.0009867642639671144 0.0033309157400408154 0.0010917023802062558
153 -0.0003253910833330382 0.010175250895735432 0.0011949682603673057
318 -0.0023040478454021945 0.02718151615232205 -0.049972230971631115
1690 7.937696592197787e-05 0.0026462953581406616 -0.0027652529100988684
184 0.000988997327240078 0.0006131489590770009 0.0018936599680908464
119 0.014788068041761854 0.012165924966415144 -0.020733868024354955
338 0.0038293789431518193 -0.001771080702940912 -0.0011348361456453395
1970 0.002586889912391305 -0.0031387680889602434 -0.0014622909334393603
85 0.004607384627165798 0.0029859352489267103 0.004440037793794131
2309 0.004990988984883869 0.002078900729684131 -0.02141524408784259
748 -0.0029764577756565516 0.007411736287102878 -0.001556396716103643
185 -0.008419433253493775 -0.004196745233604059 0.022179226116429716
727 -0.0036936559201826906 0.0003467306856358996 0.005833144303114678
1729 -0.0010599971117192636 -0.0039752790480538066 0.0016348654260035273
223 -0.0002911350746740423 0.001694878908712794 -0.006496416437905271
1004 0.0029780911501809757 -0.009458021931138214 -0.004121987358479111
1105 -0.001794424623820184 0.003908745914474511 0.00484667545491978
2360 -0.006843767399619323 -0.0014708719621840582 -0.0012232618111141344
551 -0.01034026961342461 -0.007679879240976961 0.00179793670835119
1817 -0.004804455607865735 0.0026427564333064407 0.0013725486229342481
1036 0.0008229597072314626 -0.0019208706623746463 0.004350043347700564
2022 -0.0066179195670652505 -0.0022144344601936557 -0.005364693186204429
844 0.005044570725783019 -0.00047952791856299795 -0.004039537417669054
1058 -0.013168088410845455 0.0068006008653713835 -0.013657804293488859
504 -0.013844822445605092 -0.014116504396588425 -0.008883238518138457
1942 -0.0052365412154633355 -0.004120193822885794 0.0016635157183015697
1631 0.02456493801857294 0.010953434454349343 -0.015394331888842865
798 0.004600884669323164 -0.016891850773358478 -0.00928738228322252
941 0.0008405417320154242 -0.011853334011307299 -0.004150662553851913
1185 -0.006952033747904031 0.00835691709528984 0.004903609669242269
1137 0.009781895256910887 0.00033153219480495374 -0.012205733907129198
563 0.002690144647660178 -0.010452769221297176 -0.0034137735756476135
165 0.006340595922406131 0.018151942855337246 0.005392334740749344
1639 0.0082086979428479 -0.004946131314742194 0.005776371208981573
1232 -0.0059077200725322155 -0.007753773373995581 -0.005298582171728738
520 -0.0028034203404245363 0.006040204797827604 0.004524391500744746
462 0.002587636359801335 -0.00032349350262781963 0.0004310645010147923
453 0.025874277204305865 -0.008677585114789488 -0.009983384380671603
1782 9.836923936332775e-06 0.002281163092810423 -0.001569510260558308
1560 0.00909356127556359 -0.004024041753443731 -0.0034062739465600803
317 -0.0025150942116580303 0.011748528379611524 -0.00735765461088545
1531 -0.005039264232174583 0.003238587884846994 0.0019101630570012133
759 0.015905933104087257 -0.005778111041066776 -0.009728941972272356
758 -0.008244417371350775 -0.010318798648251234 0.011221379073923777
1069 0.006801560496523025 -0.0010051086040778411 -0.0025647332888135877
215 0.00460997573344252 -0.004731176940337354 4.293487773063261e-05
337 -3.85316215118367e-06 -0.0020018111423700372 -0.0005913627039312206
1558 0.009361037567285669 -0.0038696141015030668 -0.0016861899591859133
2041 -0.0030260547841990597 0.006528393193985681 -0.00022747681100205165
1310 -0.004434956176306883 0.0037386504955686482 0.0030811849562596737
1780 -0.00030496791204068224 0.005088918425061076 0.00015125565580607645
1580 0.017047478659194183 -0.006333463956311372 -0.007248261922602209
878 -0.003019980737829401 0.016974836124054857 0.0004676970971297913
828 0.004499117825405186 -0.004055040230243575 -0.004571750365264751
792 0.0027556512058191625 0.025912905342646293 -0.007732586815624778
544 0.0030993941428642618 0.009522932723781253 -0.0009363836108047899
1533 0.0035416501321621596 0.010437609438890376 0.0067008964577776895
458 -0.010234463258710306 -0.006681759059042294 0.002410073185407621
1730 -0.005787324071932869 0.0027473337971912442 -0.0033345884077428637
1936 -0.0005231971499560026 -0.001421295302051344 0.0006376247270865795
826 0.0013506926783168 0.008907337576534325 0.006395706115076921
972 -0.007278484766276026 -0.009433062315665972 -0.005074902280569791
1325 0.03128984908635254 -0.0036077404288724314 -0.009771720361538469
400 -0.008224437063601871 -0.001301678316157023 0.001655575518231565
986 -0.00910123589067381 0.0054944178360873 -0.0004331293831127915
164 0.001222294848390912 -0.005571577052253024 -0.006308220964792209
120 0.011751889410529282 -0.014121458108280496 0.002636210625614782
907 0.0030877413099176776 0.0017819541211266336 0.0050628040315553215
2308 0.002567480864584904 -0.0014767348948860957 0.007457180758151351
216 0.02683917489065373 -0.021022726979204882 0.004574910760444573
1009 0.0032125190485379892 -0.0002574349526995319 0.0016381530915200659
806 -0.0014619327579357315 0.008779874697747329 -0.0042154098069117785
1534 0.00010588093689220822 -0.0023517137744544663 0.0016909045464335549
1828 0.004501309789395666 -0.0026848986278721876 -0.004397094301657464
575 0.0062378327171379415 -0.023195598045442804 0.012059636499069612
1429 0.0035879035250043555 -0.0031830364375866975 -0.0017472423137621152
1011 0.0006204628779418061 0.013436790092084174 0.0057428484768303955
772 -0.002118873697500979 0.0037112758517590673 0.006656360966087953
151 -0.0011805078209415037 0.007482697677194156 0.0032740537050334464
1552 -0.006740079411798284 -0.00045521703095971857 -0.00185062735860362
1397 -0.007001350822593608 -0.013100634899150738 0.0029764750698118097
152 0.005249179472593936 0.017816518472610465 -0.003959617410331135
1047 -0.0004897271683787872 -0.0007017077247065226 0.008747765144678095
2042 -0.0019190702325626058 0.006579588592708778 -0.010689827171132496
452 -0.007734178795177039 -0.004920901037696518 0.012321444907083128
1685 -0.011292684806737993 0.02551708344728548 0.027844741366612802
1818 -0.008364778414333045 0.002626613839467361 0.003273962963722595
1107 0.017676405446764472 -0.0007206032259220469 -0.0052384697629989365
2341 -0.0008708932612564214 -0.009873051421784521 -0.002071891561254101
1301 -0.00205495552287867 -0.013933459824273612 0.001592268734750316
2044 -0.005311896994105606 0.004438317702391817 0.006592395222841342
661 -0.0002494708928428175 -0.0007740638092476094 -0.003089855763966012
750 0.006583244994714739 0.023188859566306667 0.021485818301016153
1535 -0.005378978497873808 0.015944249566328422 -0.02169948007270181
1400 0.011443630738008425 0.020688865031874223 0.01814328358499187
163 0.0003168499207851043 0.0015598237724325603 0.007071226298951013
2216 0.013257197605756466 -0.004660926063341274 0.0003684733754130481
1632 0.004186437185906991 0.004197620328667533 -0.018253787796586346
50 -0.017738916123993823 0.0027600968945766372 -0.0002654388990769616
1554 -0.02237323620982954 -0.0001978621238944513 0.009303257564866099
519 -0.012648828750195202 -0.009382326085601883 0.01750591266835045
1537 -0.0014287559304231212 -0.0035195214060257645 0.0011175554570467684
460 -0.002685515128915274 -0.00405968275779968 0.008602982365539844
884 -0.007202921392019519 0.009630804680801281 0.02099943731628343
2045 -0.019400674199998958 -0.012702831849202918 0.022447678999524802
2165 0.005592978426035564 0.0045958823551548195 -0.009907409449706871
2103 -0.002447865218984206 -0.0024759226465013917 0.006049445349740106
773 0.007368392746763926 -0.005714090778645862 -0.014730586625591563
389 -0.008552857185091316 0.0035258706085378364 0.0076570735897292545
517 -0.005252398882582247 -0.0033691609870611693 0.006429088964002128
574 0.007410301629200518 -0.0003739955617036078 0.0015226727086175575
1059 -0.012019647371953653 -0.011724577979268954 0.004660393073568151
87 0.004683829992908665 0.0064172099234034476 -0.0009652972207238986
1135 -0.0008459907894916929 0.005036654259762606 0.0018750594275148103
86 0.004823848670361662 0.007877444469398726 -0.0031966402706125195
797 0.0044608507344225294 0.01649115984267057 0.009016225675267182
402 -0.006845720054375112 -0.001083235458579152 0.0026142215134574887
522 -0.018080552108002163 0.004703014842999273 0.007701155303760496
1231 -0.0031847467976225128 0.0005522760224278329 -0.00351723519338876
944 0.01704117694567678 -0.0022922374164681463 -0.000987124590198595
1536 0.025381438739793018 -0.00913029128130934 -0.013806915789729854
2020 0.0011530355719233088 -0.001797597424630536 0.0011805763603664318
1532 0.020018725004435578 0.018822569804915625 0.005793934503278647
555 -0.019642981004518605 0.0003213857196175203 0.001883103453026966
791 -0.015559308355313344 -0.008869599975150548 -0.010669057118719762
872 -0.011643933405176134 0.013907198102576748 0.010803781887734641
289 0.0038425516912983697 0.0017394613166819319 -0.0017698341397488686
1630 -0.0011945406722071634 0.0010557241157332798 -0.006150338987966066
1037 -0.004177750032223353 -0.012351697586424574 0.010151307088466437
662 0.026496780023514185 -0.030142089605241236 0.005737641245684918
1829 -0.0150096075048129 -0.0006868079014460581 0.0045043715762465375
1326 0.009120229988673354 -0.0034096814487497916 -0.007291407785002701
576 0.012186673736288012 -0.0021634511468756777 0.0038031495586071523
2123 0.03194237885617317 -0.009978992439238278 -7.449716313739628e-05
521 0.0056400975043599776 0.01262280854354386 0.0166031768330811
461 -0.005782047619571683 -0.0012838935196771933 0.011667574999172554
2217 -0.01373851529235372 -0.005290314857362402 -0.001768887202910507
250 -0.0012462399335675181 0.002745331016508272 -0.003283456958119134
339 0.007033765119543971 0.0002875356193892915 -0.0057747630215044575
1781 -0.01089744366979506 -0.00799309621564009 -0.009723202157337667
807 -0.004797350487831368 0.0008080557556105432 -0.010312442414528946
917 0.015833878911516244 0.01080168972733542 -0.015678633488085097
502 0.0027372470336101207 -0.0035114175628277256 0.0020738218988105763
873 0.019464486526667008 0.009527058610837698 0.006615953852654336
290 -0.0033836918245902918 -0.00661201004849741 0.005598257465552384
749 0.004225781855505692 0.01871279846771833 0.012723540942035684
2128 -0.002637289841377667 0.004395602236983596 -0.0010686642800591287
1830 0.015563358611484661 -0.004673240994302421 0.007920712601715549
1324 -0.002345030818411146 -0.0015171125616413228 -0.005933618983346945
2057 0.003910210550290057 -0.003374671596103564 0.003917956034629821
1035 0.009903037614269005 0.01975951728920477 -0.0014397695582666667
186 -0.010000148682558845 -0.013989339056271179 -0.009485196286221565
909 0.01137230801845872 0.019356957303272963 0.01620773997055085
2101 -0.0013119167023737668 0.0006818010538875301 -0.0028602058031290656
252 -0.0019011187893945784 0.023362257087902908 0.004003708535168178
1821 -0.015218056980028913 -0.00023035715952662286 -0.007783557384904687
805 0.0023104127709458657 0.0016830865316871436 -0.00098957314281292
2122 0.004328612715603827 0.002376789827991448 -0.0030467513559470413
503 -0.010618341600324113 0.004618067175869024 -0.009963223031570592
970 -0.004966998991175476 -0.0018224874307663128 0.002369249942571261
1300 0.006619328646726837 0.005811308256633743 0.002360427135963522
2211 -0.0032486667174369288 0.0030540302555188505 0.016363069800730653
432 0.013647301223010905 0.0007000162988207592 7.046987164393068e-05
2246 -0.005133000550652438 -0.0033767894233375046 -0.0020409249262594155
1164 0.003202366512773452 0.007017645535243086 -0.003611132497977308
1034 0.015234892525844923 0.02676325485547248 0.001010469511993476
1691 -0.0165834540022076 -0.007912582567243623 0.006570131421729927
877 -0.001975125594475255 0.008889257875981226 0.005046617726081926
1088 0.0026931455582287606 0.011298063665683351 -0.0016777911185194994
1944 0.009570429404976075 -0.020926944868838886 -0.00035581589134261023
943 -0.004706357784890284 -0.00026449088846463675 -0.0008082224809722339
1937 0.010298065433364834 0.008991218280758334 -0.016196664206706728
670 -0.0011645353533050024 -0.0032234156270820806 -0.002976415074925762
451 0.002286691430937176 -0.00391706811282516 0.0015283548660341064
1233 0.03013138913567832 -0.014720312731205103 0.017431797216328725
691 -0.000403913462503597 -0.0006583165785264203 -0.007431825640354299
2102 -0.01955964703131164 0.00036502947389293884 -0.004145663382026435
2056 -0.0007714840446114824 0.003400309668243385 -0.0016038221266283558
918 0.005753663162627708 0.026177315332479516 0.02025983513606257
2195 -0.0020799305525107635 -0.01023979160176434 -0.00835057616160943
251 -0.009774800912943993 -0.003225232678633948 0.0011918202527038664
359 0.008149963051522555 0.014793345111428465 -0.016464514943076245
2060 0.0027250457559915035 0.013313152265604627 -0.0008722667758232272
2130 -0.0025767453265654696 -0.012861994362084994 0.007165722365386155
1938 0.004554480031199243 -0.015426540586990767 -0.004244711586992751
1859 -0.010199111438747377 -0.00024653694621016317 -0.015113047751134699
1070 0.006231045111340744 0.0017340591569004382 0.005485914277540207
2154 0.028517781602376367 -0.004142865755901853 -0.01747915375836351
942 0.007186452882877722 -0.0016719737441281528 0.0015000458031113047
2342 0.01463547518620128 -0.0027754447110832823 -0.014507982073445608
984 -0.013425427436116856 -0.0025392683077568702 0.0066332065819309175
401 -0.010088214870966283 -0.0002351086510620323 0.0010237547850339979
1163 -0.027406444984223354 -0.016389560177552377 -0.007081254276862189
827 -0.006791342493616497 0.015889107450582432 0.014388952036838825
225 -0.024264883663799048 0.008343242974467426 -0.013988146744835055
1559 0.008544920895625448 0.0022795050412960562 -0.002372227718245172
1136 0.018818578108105426 -0.0073174568268395525 -0.024105007881230583
2124 -0.024798957509302767 0.0024044878209154444 -0.001273763688480891
1816 -0.0028892886817088776 0.0009638035876312238 -0.002868250200823341
1033 -6.964860242822723e-05 -0.0013661399571065788 -0.0011452673174035231
1038 0.007687597011439448 0.009939143170116136 -0.009914622133672507
1031 -0.008050891279232022 -0.0017920942197352445 0.003920350079591351
1162 0.0026481667882462985 0.0009410948839927563 -0.001609206714743579
1640 0.0052327503168076335 -0.008272096481500362 0.010088398117505646
1291 -0.004830281230417111 -0.004830791301088804 -0.0017667092565554294
2119 -0.004379320915025744 0.0007578290306165313 -0.0007113978192081786
1130 -0.006830651134006095 -0.0023686369947114594 -0.006302075399525244
1430 -0.0007335028388582201 -0.005829572882624328 -0.003909819481232459
1819 0.0011261065082637525 0.0012082445805832198 0.004392889250701407
1295 0.0056988534208657566 0.00409324121880082 -0.00018499839286248386
971 0.006528109375773761 -0.0050560346819200725 0.00478635693168375
2210 0.0006375619154465118 -0.003185037124059723 0.000144598111714201
728 -0.016735086102732017 0.014668387105112028 0.004909219885518744
1401 -0.020627588130786956 -0.023670834857791343 0.004619904595245322
1286 -0.0046133377407365775 0.0009274677822023511 -0.0028080372843966857
1309 -2.7445404291534745e-05 -0.0037663126473121054 -0.0008751073213434217
49 0.0007263009489165459 0.007214260583710838 -0.0015959587328054675
1046 0.0031666657445959404 -0.002842092369161039 -0.0013531942453664627
879 -0.010319468438878656 0.004623204192760754 0.004166385719877207
1183 -0.0018318434255137712 0.002912176376848382 0.0005136358710134497
2209 0.0009914037842983575 0.002291679204472061 0.005002411353873452
1274 0.004261334144950856 0.009406907079531407 0.005314446728683808
2153 -0.002469960737916722 0.0015018887653998074 -0.008660336088018942
908 0.00630432812054227 0.0022743878329284564 0.006616297474060614
2061 0.016954141261089874 -0.017487740752780156 -0.0004849505160812995
929 -0.012171973480512032 0.015991474751726218 0.02988614930183759
557 0.006852309682558883 0.011750734135866166 0.0013402738527920018
2059 0.0021823267187813925 0.0054103779768037525 0.0033184843816356385
388 -0.0007324397324401198 3.430539459135182e-05 -0.0019171010914240565
1030 0.002648121786886364 0.003161169001802341 -0.005181162533852361
1396 0.006152484937253771 -0.006949281346193676 -0.0015545971578511536
1398 -0.005173581518690303 0.0006054093242214288 0.006577947364288605
883 0.00233276739190023 0.0028445815049975044 0.003934034463710842
558 0.006174969087450378 -0.005838326630166856 0.012806649592653825
885 -0.0033336569067629242 -0.0050469625078646465 0.043702369340765955
928 -0.001284431386341228 3.5353044283435824e-05 -0.006662267501217677
871 -0.0021112452361800706 -0.0008890394586388544 0.0024601870378918953
550 0.00122566336411554 -0.003820397736020252 -0.0025902420967827268
360 -0.00014901063756534547 0.001264571011052051 0.0030324890932575746
390 -0.008815851854513468 -0.006331846051099641 -0.016889325969117266
518 0.01755999546975169 0.0050570202054495755 0.007969451377387535
796 0.0014080920591608946 0.0009857738089195617 0.0034110779352735875
545 -0.02817062992424295 -0.012320507996853166 -0.004463649822744099
552 0.010607396321214255 0.007597845181743867 -0.0023921742430510137
1943 -0.006405415039798938 0.010640893715932213 0.006175019319668488
1431 0.014936315207926862 -0.004856419135962493 0.00313493484814629
556 0.002552200521563983 -0.0011993707669285972 -0.00175996962268262
1184 -0.0009549042883210141 0.004395130507606527 -0.007543594820789957
1129 0.00042165875429759275 0.003823784032003198 0.0011304395551558267
1775 -0.0034825993778860144 0.03198878427896921 -0.00017597832151957995
2247 0.002641052561019423 0.0031736919798252003 -0.0020971267828813482
1597 0.0008646340383562611 0.00043441959975467254 0.00026292413206346633
2245 -0.001791759413688543 0.0005586113442707637 0.00176387474184528
1774 9.04025508615632e-05 0.003295619407555447 0.0007857982702483827
1199 -0.004983115494087198 0.002190057954672183 0.002906284295024217
562 -0.005006560021266653 0.0013596534248356438 0.0012134518202098058
663 0.004889671593397995 -0.004856547670369018 0.010976970628881694
1776 -0.0012180819068567407 -0.002257101575527529 -0.00300570314134487
459 0.004995437718189952 -0.006009842395457427 -0.017605535300000853
457 0.0021270769420572923 0.0011693319592548101 -0.003947989142983064
1598 -0.014248431223722425 0.006624344164540852 0.0059198569741338546
2152 -0.002368376784944359 0.004124792638371768 -0.001095196059862427
272 -0.0005806662987010347 -0.0007067609764431526 -0.005656614049110527
1712 -0.01823891040293465 -0.015706554577769545 -0.004559985428082285
273 0.0008654613938287138 -0.0020986900595948376 0.000800815349394949
1594 -0.00030532500185537713 -0.005963494871977115 -0.0026025803996251326
2114 0.0037385000938159373 -0.004587205239273796 0.004974881729682792
314 0.007933885727609277 0.033949735396596924 -0.022956721405559363
893 -0.017039785657972747 -0.009467865717089317 0.006536647679284625
1025 -0.005764104667894246 0.004014521171921986 -0.004035776535818943
1415 0.02528673045765614 -0.011618267404731174 -0.010519569715685937
1227 0.013544677245351126 -0.0013916072287044187 0.0027764067378875687
687 -0.006968309344649885 -0.007994919291045318 -0.006110451254387047
1221 0.016562345801185235 -0.014465382970655005 0.0008212342004685634
1596 0.005679103925789481 0.010763458091697502 -0.010355827709087174
2334 0.011658651348627026 0.013258422882714801 -0.01090348433664364
1187 0.0009007623847727425 -0.003081243539715194 0.00631617828957703
1689 0.014427969318253039 0.009941178746009463 -0.004366992886698365
33 -0.008078778255911944 -0.006576264439046102 -0.00022246538719408472
1454 -0.0035210568934755243 0.000664696609477448 -0.00607342465738442
740 -0.003465240898645777 0.009930427165586432 -0.00258059744199555
238 -0.002500052021503884 -0.0017752948585772672 -0.0019613294157459797
1676 -0.005450945133178782 0.0035544994077215362 0.002271254796204184
467 0.019445950160095798 -0.01065926447888313 -0.008133097898143335
1188 -0.018961917272560795 -0.0007622246362242335 -0.01173178248434714
1289 -0.0475890857378173 -0.02008288375603727 0.004294650806550287
962 -0.010629563761523367 -0.008758662079583153 -0.011333581296490931
612 0.0010170895282542434 -0.0076747246693673376 -0.004548978656515142
1336 -0.000280643443332005 0.0008086336942685367 0.005881734025861147
2181 0.027980742107020562 -0.02892834474321047 0.001240273195875948
2063 0.022338966116705772 -0.01801060310044018 0.01677112923547943
1822 0.0007130331557492483 -0.0027837107544351606 0.011913639804972311
1156 0.0009306583807820602 0.0043917960865855685 0.003760291833650804
2304 -0.002194642373672611 0.029142964107860315 -0.013696128081752452
395 -0.0018021563437905668 -0.007016026607259644 -0.03402984463677335
2147 -0.008031422944272273 0.017838981551310383 -0.004176209201852974
239 0.0178908922475609 -0.02244321481894032 0.0045403736192952725
1395 -0.0025572137342700016 0.003378404783615248 0.004872634072104479
2332 -0.00486225888769809 -0.0017259616038109748 -0.004444935046580985
1338 0.0036291512088539373 0.0016075572214294589 -0.01236143606756483
1734 -0.002745122104674862 -0.0005118748512034165 0.0016218520754353208
1800 -0.002597028872979054 -0.012081779966141015 0.018371227549309685
628 0.0043491032614676375 -0.005680569106388936 -0.00549304320624898
293 -0.0011467770875600697 -0.021008263776592644 0.00860594583611212
1356 -0.00020550262481160755 -0.007220642902639607 -6.671665735750723e-05
2125 -0.0007961062741678591 -0.0020077340722048772 0.0021712638968772683
1642 -0.0037571270409338833 0.0004461659890011689 -0.005280708085269743
587 -0.012003025378363799 0.017049876450870756 0.023152080092608777
2193 0.001235097942930291 0.0074247577759260905 -0.020846702274442065
2207 0.0038548818893929244 -0.0042325485313818075 0.003119147278008871
475 0.0020048883029913454 0.0030480561777277942 0.0026255594096629567
1929 -0.017176272744261093 0.0011047131733061568 -0.012010941437121954
155 0.001506931269571822 -0.005556837546341222 0.003493433663112875
1242 0.018902713772545057 -0.005046599619524051 -0.00826213685957893
1240 -0.0035271999943237244 0.0023127544244089557 0.007250332367995806
2185 -0.0033838156460753925 0.00200780934757822 0.003645341415927744
1969 0.00046748985815415084 -0.0018545871091167707 0.0021831162036649895
76 -0.006582760426884724 -0.0031716874622819287 -0.006385499871689111
2283 -0.008208897964683227 -0.012457948621172403 -0.003084652548523547
396 0.006453772538017261 0.00387286688445242 0.02788760236931342
2127 -0.0018438344641468368 -0.0035855878682756995 0.012146376316318071
1200 -0.010358677685154777 0.007011385087554373 0.0019702043626090384
480 -0.005368097034876089 -0.0072071710233827645 -0.016639162463798967
1371 -0.00791146347824321 0.0057001771234591195 0.008796341345378178
1764 -0.0024562019001904607 0.002507718326471023 0.00020412445040711682
586 0.0025744122745498823 0.0023032205393665253 -0.010095439295258421
1186 -0.006330069706150988 -0.0029809062064787566 -0.0025246402795902735
2091 0.006781427303496941 0.007833954337600538 -0.0037467365598273456
1659 -0.005673800702829101 0.0038670044546386534 -0.003432853160242054
2077 0.004538308178925407 -0.006419720138849589 0.00283351957872142
2113 -0.0006512764291079931 0.011062532398150368 -0.0008666043966426626
1880 -0.00174996364509421 -0.011533323713835577 0.00963856263158734
629 0.0064613826766568875 0.0004596030375911938 -0.008186472005824558
2212 4.606670002628405e-05 -0.0020942472013005006 0.004038588766314915
1887 -0.024217354893863424 0.005250735919047338 -0.005034964412903482
514 -0.0037319887730906283 -0.004449344747315961 -0.0038120824393198314
241 -0.005150709718085873 0.00037357532916236096 -0.0016798871062892657
1468 -0.0008895871481771648 0.001963718090774962 -0.0032936723026530555
794 -0.0009254537734602825 -0.013969053826109263 0.014740309849308238
1675 -0.00704585727620931 0.0012541002294782486 0.0037875056520774142
292 -0.0007740562616353053 -0.0009562156611716041 0.0006574856316036635
476 0.006872857476042692 -0.0001361162157216863 0.006071703352485495
1917 -0.013567042551428262 -0.0196459627001042 -0.009193568975815296
2078 0.007855854356601409 -0.016728534860990598 -0.0014828497908547823
1688 -0.0032257708778639952 -0.011402911556992088 0.003012943974608509
2191 -0.00438257278376328 -0.004428851529965081 -0.00042680568108768635
2306 0.0008570595603080918 0.01134746890411058 -0.010767458188306763
839 0.00789596254520387 0.004601027595063502 -0.0037838627893857506
477 0.0059009751330656975 0.010129089240625777 -0.0006700284993331704
156 -0.004525801810993399 -0.005635712150874128 -0.0030884429817900367
2079 0.011464595900796248 -0.0014483826021774214 -0.00029086038340907314
2303 0.010591583790058076 0.001450006046356996 -0.013368741099169325
1713 0.01136778279886698 0.015728926673783235 -0.013515471746687437
283 -0.005943379511995285 -0.0012707087711431708 -0.007405415397218094
859 -0.0032297604855494287 0.002736067756821616 0.002461080561856669
2302 3.92862249327045e-05 -0.0034881797381135582 0.0012221295281110277
154 0.0023862239696662976 0.0030837394087082277 0.0005459992105478734
1026 0.0033160326056868696 0.002223391326725015 -0.005957551475297192
110 0.023128425766136294 0.005101329935021284 -0.013322572777013066
240 -0.008675308923070321 0.014679407287770396 -0.014762812950641222
364 -0.0025837335189938656 -0.0037015637836610707 -0.0015677280543046413
1731 0.009430578785195523 -0.00935113554090603 -0.007302931539203069
1569 0.0014114740876292671 0.016595349135817988 -0.003253990890419596
1241 -0.008555814510756604 -0.0007253027201047173 0.00337954859888368
1157 0.006521099001855328 0.008566486849014935 0.01851939298477045
2305 0.005321795573786109 -0.000585709988595457 -0.00038173764740840894
1658 -0.010509602677844685 0.014834091002714012 0.004353661321081335
315 -0.003928966554635321 -0.01354739114826914 -0.02355611659991327
2281 -0.004898598810934537 -0.005965103760160008 0.0037220279557392756
1225 0.0009596249284044501 0.001555087727939408 0.006941800636074229
1010 0.007070546962673356 0.02854786043957783 -0.03247696191467253
2089 0.0010998382238807168 -0.00020978356962212972 -0.0031181497104454154
685 -0.0019859260618085278 -0.004604575351728867 -0.001617097005681399
946 -0.0006946303975335594 -0.003518367614847238 0.0037063101425250135
77 0.027802791530149598 -0.009658598786818835 -0.007550849020036202
1881 -0.001451320279881123 -0.00022836144712746087 0.005612796268471651
1971 -0.003990565880809778 -0.012503427868405087 0.005287528586352824
111 -0.0019100645040876628 -0.02234345388452595 0.007003881627583723
961 0.00042488783171035487 0.0028173753024968605 0.0005110428115599754
242 -0.005147288124092368 0.00014438431165000081 0.0018824940482371933
1763 -0.03350639846454345 -0.0020512410376795536 0.01778703015064954
955 0.0076912911877726415 0.004544176610865941 0.0019769178683274563
508 -0.00785920428311195 0.004499384015689754 0.004593234870976297
2233 0.0004982109271541656 0.005848419938121998 0.006962946754860525
78 -0.028731381524640557 -0.006299418411286319 0.005111210372035368
1307 -0.0005496135336486528 -0.01309248784583898 -0.005441491800160331
2223 -0.005815058897031492 -0.004227569745336357 -0.007251715576265096
271 0.0006960473035307256 0.0031623422507305703 0.0029919254390262657
2187 -0.0004299588619918473 0.018904911977353937 0.00018080009617194506
963 0.009323127345430456 0.01817075487553645 0.0016862394533821144
841 -0.004934359684843085 -0.005351459264542879 0.008668078477360786
2226 -0.005743226806340426 -0.00502410756283984 0.005141492269254583
1950 -0.00304473258322102 0.0064659746470629815 0.0049735144046939
510 -0.014340574274078605 -0.011143566989271604 0.00422858141027064
1799 -0.013283334064325776 0.016099738081373657 0.02331633696292483
7 0.002255901668588837 -0.0005589169188358885 0.002972877533418181
921 -0.006815276697697575 -0.006034349378237551 0.02069259803200402
793 -0.007274580340352195 0.0008743195547437394 0.00396454476879433
1916 -0.010352093409256514 0.002883124886225746 0.013132036345354819
2069 -0.010593240648455304 -0.00753963134670687 -0.01765248413745632
1967 -0.011613609976415857 0.00047163640084589976 0.0038927081499238168
1888 0.007623316939331686 -0.0012912501098259759 -0.005371584129075347
2186 0.0018950723212028445 -0.0016913343726536279 -0.010204165874947253
1140 0.007196661400362574 0.012805675592391107 -0.005869682788968513
1915 0.0026455626982219084 -0.0018196223297203946 0.0053374448338389625
2115 0.015026727307578008 -0.02299895578149482 0.014382894078285385
1416 0.01022242314942411 0.0024356631818675265 0.005440524915921255
2222 -0.00952840973100441 -0.008030839860686399 -0.0017161307561112027
630 0.012781809078758482 -0.017575660001038478 -0.006913994794792806
366 -0.025112680295057255 -0.00751543283552356 0.0012466659525747414
1370 0.0108891714832419 -0.009275031039664157 -0.018428861653848824
741 0.005626483840428086 0.010134579163503445 -0.005172595530294961
1927 -0.004855006779362664 8.302085202105492e-05 -0.006091544565745626
258 0.001794968913050587 -0.006078799309900311 0.006035485919184367
932 0.01542751565396693 0.011056810511843007 -0.003329555919744194
957 0.012804052855142007 -0.020139568176475223 -0.006410254442228182
1624 -0.0023903144512511724 0.001166006348927892 0.0037813085064555773
342 0.01400997844433575 0.002490181300088781 0.005019586913023268
394 0.0010819356953543384 -0.002503443172206383 -0.005653046474824703
1890 0.0030815253681565815 0.0047714120803669996 -0.004547843076715933
567 0.006508909932049889 -0.001169691373637907 0.002137563146260402
678 -0.0012459164864496795 -0.0035675536828608696 -0.002098769843761628
1455 -0.007900055555213037 0.001183132135513819 0.0014847988551206456
2168 0.009006912217473765 -0.0010117718306870457 -0.006459996212935453
1024 -0.008168056152340291 0.0069049875804148165 0.0005143936707744004
516 -0.012260049264645455 0.006613802760234801 -0.022139554603957116
1856 -0.008067827171126337 0.014757853825746622 0.0105510919919365
2090 -0.006259304339665854 0.010296431347040214 -0.012491459591691723
611 -0.005145044379714674 -0.005283109543076491 0.0037908899161114744
2068 0.00032890774828563915 0.0021793623299204306 -2.1313622165796934e-05
1948 0.004299113836208005 0.0007900116992259719 -0.007705603742092747
2234 0.001035559404234635 0.006378372094732162 0.007465137191645285
1219 -0.004419630684063593 0.0064874623432451045 0.0014676386459417288
1297 0.0041898598380089615 0.0031398240200619146 -0.00447920939223284
515 0.001947776971166623 -0.010817617723793374 0.01475317921784686
1308 0.008591334609804767 -0.002540370047356212 -0.007667289846823707
982 -0.0006676697997801153 0.0006500640523654124 0.0014309284500035836
1435 -0.0015186445201176596 -0.0005089056694010297 -0.0018105412645453452
8 -0.0003541189033599279 0.0043734655148420214 1.6614553255873186e-05
509 -0.013251032251434803 0.02246417925967716 -0.0013214402515859987
2333 -0.014657794952243957 -0.013289458017585952 0.004018675767422882
346 -0.005766363805027641 -0.0021070820219810083 -0.0040430614268078015
686 0.016084532633167843 0.011544362475849133 0.010711489112228656
1657 0.0012267089290349913 -0.0010191801866508573 0.0011325246749753313
572 0.00489871573391794 0.008007184128325741 -0.011750233557219655
1928 -0.006959574046668569 -0.0025493238447407986 0.004775418105697438
1143 -0.003528360487956039 0.0032486485861858974 -0.006343697019464907
677 -0.0003115758843523043 -0.0007356059880267 -0.0030565384040527823
1290 -0.011106134395518878 0.0015547046240760763 0.008009121616249453
2221 -0.002627722777970505 0.00014000244935530459 -0.002882920275113584
1966 -0.0047032524041511715 0.00238384350268026 -0.002502887135155309
1288 -0.0032932113802067683 -0.00040326488284406345 0.0025013159465713964
1469 -0.0046816238888641075 0.009376145045006647 -0.006808697619995011
1769 -0.0038361637865054663 0.00676233071277635 0.010775788744324406
1299 -0.018077135405674 -0.02835460975129148 -0.01857634349342118
294 0.008420612643782391 0.00107919655221937 -0.019320042702422
130 -6.035738045441828e-06 -0.008109833101599151 -0.0100845942971513
313 0.003269283562854453 -0.003791479480426033 0.0018208428333430602
983 0.008843335440926973 -0.005859861273463634 0.009792856593818016
1879 -0.005083546281434394 -0.00834504235057617 0.0020429934042112863
588 -0.008618770838085885 -0.004768691105412318 0.002575569336086164
132 0.009560935278200254 -0.003423688592396015 -0.016334959800629132
1355 0.0010787970013109514 0.002345305867769383 0.004742291685700926
2307 0.00247742830420657 0.006672005554310774 -0.006852505634156472
1298 0.02857746601465332 0.001961972620007672 0.01569611667431453
1138 0.0011736227840851772 -0.008709229624788647 -0.0004450043176002716
919 0.0031852050594344734 0.0010303087966651212 0.004660065274932269
2208 -0.02129941252478757 0.0011293020150759722 -0.004483667425185279
2225 -0.0022169100909623825 0.004671412204990236 0.0052740759840085374
1711 -0.005538112263625199 0.0009320470565900385 0.006560410686175676
2231 -0.0071025869653045925 0.011354899137976776 0.020168469704112815
2062 0.0020580515803087706 -0.00488478358361342 0.011338669660327448
341 0.004755456504936488 -0.002322505481990346 -0.005387448292654103
1643 0.01606122577049303 0.00332702584615152 0.00027239600446145556
348 -0.011578333425249164 0.009258243489491898 -0.00502258287204604
1567 -0.002164622116873623 -0.0023325481427139945 -0.002336734199206149
1306 0.0019783674656978297 -0.005466882001871883 -0.0009800978022922499
2232 0.016544272509482177 -0.009259313618058023 0.004648333880659001
1393 -0.0022327318820953685 0.0006200109179320661 0.007102972180229925
2206 -0.002200623674310683 0.00038457096705173224 -0.002471068492584498
1677 0.008511823114173648 -0.010638835153657752 -0.006411416217817897
1453 0.002225819929940264 0.007393235246934421 0.000424329640502549
1733 0.0009381611074445564 -0.001127719753198323 0.0005727621622834198
1198 -0.0009146066577211336 0.0011591212395355252 0.0014429245478554073
256 0.0046670901359663905 -0.004078182126643043 -0.0061645267807362465
2230 -0.005386946369211211 -0.005078758784537163 0.0012616823959482764
1644 0.009770952105504188 0.0017881794671462557 -0.002263945758351975
1142 -0.009904396988147691 -0.013170904276822158 0.005548202051790054
2224 -0.0005864847433553727 0.004034618483603469 -0.0011269012051511398
1139 0.002800087493350641 -0.010477565543584607 -0.0018078793393349554
1687 0.0018258708354744984 -0.001307224211901988 -8.996320860131272e-05
109 0.0013012290098580266 0.0031738103249168543 0.006243291463604035
2126 -0.0038796625146868273 0.012031232672132334 -0.01819207441409548
1595 -0.0103944909764052 -0.011075205869397697 -0.0020434722010406786
466 -0.0008323461783598526 -0.003054120657631141 -0.002409882744036085
468 -0.004221220180644388 -0.010660526031449154 0.019349373682681928
2146 -0.005159193783688798 0.000429511870088063 -0.004453327180741674
564 -0.008102316691055716 0.01491008347463983 -0.0162066490911625
1226 -0.0013523610434550022 0.02106672456667839 0.011398925725112002
2148 0.014320638247385368 0.008304583120147311 -0.006269174861845473
365 0.0026471586368274316 0.015224503344437102 -0.004217229022528317
347 0.0004053065810853481 0.006162051615410892 0.0067703076350125145
1889 0.010560017739665393 -0.00044035827811004163 -0.0077672471420402985
842 -0.025060107734268585 0.0006405507113099306 0.01388499581914716
1968 0.011555921100685112 -0.003221283473031785 0.005856973132530228
1732 -0.00043278080378802167 -0.003066749996594039 0.0015277388265332876
920 -0.0034317026802584516 -0.0028052488095373614 0.011587981370496466
1218 -0.01483585071655094 0.011823084337441694 0.005014457748895644
1337 -0.001647262906544877 9.35441477769227e-05 0.010102308101835234
1470 -0.015429014034005857 0.014250475805103979 -0.002244396061427677
1568 -0.004083745996225719 0.006408916688377366 -0.014125662410735628
131 -0.010658455083808277 -0.013056990133177035 -0.0022594064918877985
257 -5.531629700356808e-05 0.008320259040806004 -0.005382365898614013
1220 0.014250644028103419 0.014888930206765232 0.019447140852260746
947 0.033779208111151385 -0.0011701296685341924 -0.022217828087798513
243 0.0011707958409773666 0.005974684622276048 0.00022835428342832798
194 -0.01576109773255247 -0.006547205402475032 0.011852081088888326
1158 -0.010443177319262748 -0.0006525471885545026 0.021124434653990064
956 -0.007771665071685238 -0.003255741784075632 -0.010513385145843093
1824 -0.007565077355883075 0.008063223993680573 0.013178243300455023
1369 0.0019255833470588092 0.004582262532316379 0.00020813532437584639
114 -0.00711310521909865 0.012278115109456833 -0.005987607759674319
9 0.018986955824139302 0.010423099081226005 -0.017135453165296733
2192 -0.002656512180252532 -0.0047486644842087795 0.0035213271548829115
2235 -0.01272618438823492 -0.00847721373968226 -0.007241292781935
478 -0.005132394023789107 -0.0023427065867159358 -0.0005571067156756876
1354 -0.004103469677701912 -0.001091911548507415 0.002188750018340057
2282 0.010612413847562487 -0.010095797764067228 -0.0027611151833465963
1762 -0.002144999090201051 0.0004080645354864109 0.0012150641856815303
610 0.0028274881173573256 -0.005217987338646291 -0.0015405668733992428
2064 0.0020669298733690285 0.0022263308528383124 -0.00016640436426254077
795 -0.003551631375756581 0.0027399819599432827 -0.009133499957696873
1414 0.010854402394881035 0.0015510185021384523 0.0008834315100411343
838 0.003922329462999098 0.0061833153324389505 -5.034117450502202e-05
1625 0.000313059371460249 -0.008388279426177245 0.024120301396320022
1626 0.0019550037596790027 -0.005647062387175195 0.04157878823371086
2070 -0.0056150385625140286 -0.017440830594427394 -0.00764758655403967
1855 -0.0016482405529191094 0.0054467392604004424 0.001601323275770407
930 -0.022190077984957715 -0.00729207394632669 -0.005420584070789113
892 -0.005456657367156068 -0.0005812932704085365 -0.0001611675916947485
1768 0.0006411841244384616 0.004885015991254869 -0.003166525649294357
845 0.004456922680119209 0.004158049345443815 -0.00363981468682432
1141 -0.005001605565288547 -0.0022781016363115415 -0.005810529489279623
2075 -0.01156385826442564 -0.0027844002402322376 -0.011439685480912284
1949 0.013937433583628617 0.006273029885802958 -0.009697020106341738
861 -0.012446568317654616 0.006381088832058846 0.007786787629398478
2214 -0.019580314394267554 0.016986917482724514 0.022066906059119325
1823 -0.012177958725402721 0.008583493261565166 5.268293069186456e-05
2213 -0.007038542141304937 0.01658068365400092 -0.007984002835741764
2179 0.0005291347011843957 0.00042876759034333404 -0.008581709600922178
843 -0.013460670461545485 -0.031063877153433384 0.014812119887328584
676 0.00041283741070915694 -0.002421573255197493 -0.0021646443289315503
571 0.0011463489352751622 -0.0008012155275734465 -0.0027869818922878794
430 -0.00033030772728403384 -0.001101260518681477 0.009224138814789406
566 -0.015074250459253908 -0.0035229659889064804 0.00539067582839852
1770 0.007221324330476333 -0.009424331258162465 -0.0060398166005555
860 0.020712307614708846 -0.005106198220525989 -0.006979592553525359
479 0.015330942007815348 -0.02181178925242283 0.007668806437780113
112 -0.006561790705067564 -0.0018076861580815702 -0.0016863399112473168
931 0.006247147558765458 0.006508451983766201 -0.003821148060578094
431 0.02504079981232246 0.010439236561813107 0.002987926861896791
1952 -0.003560545466600609 -0.003755682745567567 0.001964965454730816
1641 0.00038328233635461927 -0.025242160056538922 0.004424650947408687
1692 -0.013168305752788137 0.02579264746493502 -3.821352226462404e-05
1649 -0.005127465981890509 -0.007572533284829767 0.015359750976516179
2312 0.021212535666574665 -0.010822216695846838 0.016558069812529157
2040 0.012768375619939622 -0.006913609883609491 0.0010621378676925947
1001 0.0018617304296074254 -0.0008304584985723467 -0.001379688416284384
1019 -0.0009981067446468105 0.0005346312025435726 0.0009049875084717522
720 -0.0025766628151012347 0.016304502535957374 0.008505708493729593
1479 0.00020756310154054425 0.0029102988114931877 0.016396384183542716
1244 -0.015812653111949602 0.011352277288641913 0.008100210837031918
812 0.0067651378708325355 -0.0020474895724127535 0.0011857572678587165
1408 -0.000956701240032414 7.121492066321526e-05 0.004236000458448667
495 0.01345601398667753 0.0020588148509757954 -0.001213322412236775
471 0.014951256237818985 0.00021495466171429084 -0.033691594503823474
1477 0.004456242601832481 -0.004808847487168082 -0.00304817802235617
1577 0.0013009090886632476 -0.0020041152987278375 -2.232722689494178e-06
1572 -0.005668584706435498 -0.0067048715778056924 0.0118468772083216
420 -0.0033178315823921083 0.0037895051845014964 -0.006883844821930516
569 0.03622081024997652 0.027668939099067934 0.02377143243899464
1846 -0.00034899117689956704 -0.007663174749334164 -0.0034718283696204663
2072 -0.010100833771445489 0.019195881451434516 -0.007829824658218012
912 0.001096320104271021 -0.004539601642610418 -0.0036746205367476953
978 -0.0016034573408939257 -0.015421177793940985 -0.0038159240002263585
582 -0.007676912903519537 0.008307787631712697 0.0026727306892352135
785 -0.025037992442995365 0.009915847274637977 0.005583296016958371
2104 0.008291297545920616 0.003198177512028001 0.00031393477595452853
1848 -0.0019294925685596346 -0.01092395565239914 -0.007423425591143487
2294 0.02328986969005515 0.05126045813090403 0.017362684986283735
1608 0.014506353922084995 0.015432438283479734 -0.01350931817564753
440 -0.005884104132189798 -0.011911060338182313 -0.020156550315225324
2268 0.001433579096677894 0.006545649949264525 0.020724484697725275
288 0.018686633159901562 -0.016663393678023216 0.0006013293800541816
782 -0.003095077475798291 -0.007566967653374626 -0.010731442986813599
2267 -0.013146666518902391 0.0006409704735537501 -0.008033749956367551
1767 -0.009738544969966642 -0.0009321747521598475 0.011367054643651196
176 0.026146460034994948 0.0036966185844949546 0.015836649726911678
862 0.0060044156310358225 0.009559110894983774 -0.0015621195976753663
1229 0.0052058954496520295 -9.086567432077366e-05 0.0003553874412966446
1882 0.005544017840651457 -0.0023635847685512788 0.0020069462478792825
1919 0.006096762769190236 -0.0035233818642973636 0.007619773541472313
372 -0.01071460005702875 -0.002662290045698429 0.008776923391726876
699 0.017780537016078745 -0.009967975339420126 0.002406299903704924
1738 -0.0005900673793198931 -0.0046038036175570785 -0.00451031061592789
1444 -0.0053577961545771555 0.007430081608206682 -0.006238605642865186
172 -0.003124350921376844 0.001516047260586213 -0.005356006504092386
2398 -0.0002259273377783379 0.001424182204221256 -0.003918935630450212
990 -0.0035056613230383627 -0.016701448863352335 -0.0213878214531485
1478 0.010545292997130539 -0.01664089372078006 -0.014517943827357214
813 -0.021764294006221627 0.010970948036799755 0.0003121710782607525
1442 -0.006403606334786841 -0.0056015350119124315 -0.00021848510676092855
1000 0.0002737442322476196 -0.0062187275782901365 -0.004644554355582109
378 0.011255310352312147 -0.0039842580317154255 -0.010567657063781296
1865 0.010651237402633587 0.008763982110217911 -0.004284290302486736
903 -0.020948941664955836 -0.010411827791220454 -0.0033495393520019253
173 0.0037456848531841522 0.008612584876925409 0.02023156029969209
1323 0.0054398157818 0.0012067781536585843 0.004704389307497181
1194 -0.004013707936203989 0.02025664908237944 -0.001727965677360943
835 2.882918345356929e-06 -0.002146768878462536 0.0004237076324228291
2204 0.014074206243615694 0.006414556013873704 -0.0020672807808907825
182 -1.451348416222095e-05 -0.007205956318409082 -0.0010644272805847889
568 0.0009533995275491497 0.0022015404936626894 -0.0013279838017912274
718 -0.0006992963763899937 0.008966370873536227 0.0007116899307381548
1245 -0.01167053552981015 -0.010928319897028974 0.005058654519522206
2400 0.004779475782605235 -5.094415922333296e-05 -0.016775064168784975
446 -0.0015418952971999792 0.0015968169793142382 0.007681017567367624
1912 -0.0007686705688754692 -0.003056972574546192 -0.004855722349458674
2372 -0.019367977571026884 -0.0004883188993402952 0.0017587579738104803
286 0.0007381831644351801 -0.0019727052858246777 0.004067738273843003
17 -0.008411418979473811 -0.0009799574357615927 -0.003992226888727445
598 0.0013092552642890566 0.002095769785197569 0.00445405758880115
2386 0.0020151281283569598 -0.001390476622224666 -0.0017956700860412688
936 0.01549956782736925 -0.0064347795471698475 0.027403144796615018
1609 -0.006122786000222614 0.0017141280685713382 -0.0016991696619995153
2266 0.0018879939654301492 -0.0017567605148074527 -0.001670588960404873
2149 0.0002746052942207253 0.0005073308519595659 -0.0013037088469692883
1708 -0.007544941931613419 -0.0019983841865267747 -0.0032502846498961148
977 0.0008853980259876254 0.010792194049906846 -0.001850900882065704
876 0.008132548997504268 -0.012417639514342785 -0.013411867076332512
207 0.020150972811250358 0.004256268539427103 -0.005784287421271987
836 -9.446232024091245e-05 -0.0010680908489363176 -0.003976696612596084
789 -0.004858013904570647 0.0010849973741676535 -0.014324103918787953
1871 -0.009627814232082352 0.018330848052411797 -0.004405975463338359
1867 -0.0032365104247576654 0.004085968645993147 0.0017602510879566736
864 0.0032376579525734447 0.009476294246600911 0.006148963808107331
1441 -0.002645962315966245 0.0014410140751764764 0.001028446445725457
74 -0.009457704533511422 -0.008190069185903296 -0.024753408201770685
1686 -0.010759908650029263 0.005476921479631275 -0.002143066090478178
1081 -0.0031996900640217352 0.0023698153673100387 -0.0006525678830780217
875 0.008770121095718753 -0.011816306251109967 -0.014060173667349084
1681 -0.003938874818648622 0.0008423230334758919 0.004579077813736495
895 -8.098943715913344e-05 0.0018319324686847833 -0.004016879665445875
2026 -0.005682466718514086 0.004085952672983412 0.012057127112798232
1779 -0.0012931280532843409 -0.002338397001286674 0.00784465105542047
1571 0.006177586519986292 -0.012453299773417201 -0.00655188371050933
969 -0.0007315533719560384 0.0019296665788747435 -0.009508077520018431
1806 0.002636531399253262 -0.015718115871174956 0.02061205228490037
787 0.004303110045174323 -0.0010012979504968066 0.00041525264031145416
701 0.013535773079610522 0.002238087739029435 -0.003694176722144856
896 -0.0007271165451075933 0.0016164873112590595 -0.0020896269901944913
2105 -0.003074328022234488 0.013423020383120982 0.006658813416073
2184 -0.002569628240185277 0.013460447413249784 0.01835444411057179
18 0.01634429355836445 0.006494194512587603 -0.002162635822055033
683 -0.012239594071279036 0.016251121452392932 0.0035711093053519714
2106 -0.002251325139720458 0.0018952493327951145 -0.003355241859921904
1791 0.00308285049186872 0.0017500252994119801 -0.004451768911875752
371 -0.00454836705687597 -0.0015676399187670408 -0.012421988170994202
2356 0.0009637108229923374 -0.0007622459728745817 -0.004013164575761624
1476 -0.0029390334955156547 0.020264552823691353 0.012285768294718467
441 -0.015428067022356096 -0.016965424299348747 -0.02321893598462211
529 -0.009787883450986754 -0.000709499412304976 8.70424806102287e-05
1203 -0.00991760503772486 0.01041491552653832 0.012318495543849473
2338 -0.0041770748879960615 -0.0031961757369488486 -0.007062389910689143
1918 0.005806242480198094 -0.0024024144377726387 0.0021308898436170555
2027 -0.02389059655921829 -0.017744656333590687 0.006495457381391679
784 0.0020500586039623923 0.00659650753179442 0.0008442719393743925
738 0.006202331138238923 -0.0011811281087863873 0.005089234963576795
418 -0.002847241902300699 0.0037745517061428743 -0.00649381440703683
1049 -0.008756234590923357 -0.0061398733223636225 0.004937560101298601
470 -0.015401498250476563 0.00010193439158627965 0.000884560661102097
599 0.011016282904079825 0.0016355450791349794 0.003796627858106182
975 0.0007606768071732271 -0.0017971314444496856 -0.0031113329381003982
1576 0.004209958296934441 -0.0025105855388462047 -0.006913081700576174
2094 -0.01969571962009199 -0.0008112705094543256 -0.0034995430820874813
1409 -0.0020417650317317813 -0.008271037507938653 -0.0069490889094656885
160 -0.000412079099614182 0.0004571642627285394 0.0022644885085624034
811 -0.006034532423286244 0.0026747636892508757 0.0022616230312745202
101 -0.008427054455354547 -0.002594101208750765 -0.007416085914359705
788 -0.007752347564926226 -0.013061367253338249 0.006796825902784136
181 0.0010541331914313613 -0.008865846923239806 0.0015860225286184206
494 0.006924655208685325 0.004295602247256338 0.004596647410125687
1610 -0.005773008776559607 0.007653993451780314 0.006353640242336197
1739 -0.00796839719368772 -0.0027743284323265283 0.0026036272374220667
786 -0.04819212584621425 0.004410419936704184 0.00915359436915306
1683 0.01046027481793037 -0.002501962630507345 0.012083344857428954
2299 0.0008403118828405384 0.00029191201641943907 -0.0011222499484057936
1946 0.009616698923019648 -0.002603215752719153 -0.003697745413362219
1710 -0.002261109385439896 -0.005687882645913841 -0.007921550877487527
2039 0.009714718554144106 0.017904017639499486 -0.005446098565405429
2143 0.009244719260495181 0.00014690722823599864 -0.003909542594112015
1410 -0.02867925496061887 0.006990858476074171 0.01453528784770283
1321 0.0009307551139797668 0.0028709185756931183 -0.00037086591849358377
1126 0.0041223086558472575 -0.00011668564273386967 -0.0019521912896020327
493 0.006371541116137479 0.0031850137745385526 0.0018830642282428678
1192 0.002224254512428637 0.006661467894730027 -0.0005092816942880376
1427 0.043320162478572136 -0.010911122600741697 -0.03691826459868573
161 0.00923071154719217 -0.0003798689668013938 -0.012743579838961834
1647 -0.004182380786179099 0.006540540442909454 0.0178237758840875
753 -0.0059826428324345265 0.00986753143933133 0.008456521116032005
967 -0.0003994207280314518 0.0009167624565940456 -0.0035055446162280918
994 0.001383920624094126 -0.0018403674883546552 -0.003008956350116031
698 0.005213041545040741 0.007919383205453205 -0.006431435295892068
385 -0.0011019829387068744 0.0009071069875739572 0.0034650635707333313
1945 0.0007922976846893281 -0.00299371277780732 0.00034356058476619935
682 -0.004789813732486559 0.0010108345438774892 0.005554845883087939
377 -0.007426590689580521 0.002043144885797886 -0.006960262987809241
1914 -0.013205086139184936 0.015588644500521656 -0.011492452658392285
547 0.002691477081418109 -0.002921697363968233 -0.0050993442829771795
973 -0.003374681131514754 -0.00021969871751082126 -0.0020333312238778115
684 0.007778438768237532 -0.0010261955623928761 -0.007025525331863282
1445 -0.004915618132283056 -0.0075757839013291545 -0.004899226349590609
1128 -0.017689710766248496 0.006381259622181133 -0.004749470778493422
1243 -0.005047067446365554 0.0021591564554616204 0.0008830008804043565
736 0.0030767757977962426 -0.003736109265329837 0.006035988012394556
1870 -0.002621586283504189 -0.00021261016512114355 0.008134809091223159
1443 0.001215202885153134 0.0003872591085851638 0.005808470376750202
162 -0.008236708438662964 -0.014145868707966639 0.0021674388137933338
697 -0.0036540506028426125 0.0016706940807596198 0.0019696122634129233
1315 0.0029311080342607635 -0.002194642168665826 0.004892219816178674
633 0.0024958290629105715 0.004639256146708882 -0.0016117517511895281
1805 -0.002663982068719322 0.0006249837684159755 0.00591288833654597
439 -0.00248155287816396 -0.004106678251049887 -0.0037964152209488066
888 0.005973330918338166 0.018688769623264483 0.00648328147836709
902 0.013764287985846535 -0.02360883456663708 -0.0017642576904364118
886 -0.003264972191748065 0.002624865802950228 -0.0030104705104485544
205 0.002072793158404386 -0.000659587531324027 0.0044286147781666795
968 0.015188282167958365 -0.0010083394013090615 -0.00242571523605631
498 -0.0016994063961693583 0.0009096381357087046 0.001790960049719236
751 -0.003970868915532743 0.005374938073039595 -0.003138651732879041
1646 -0.01595507422273007 0.0034012181960161214 0.011810343502900056
1018 -0.001434483341134468 0.001066463483382738 0.0011026808356585588
1709 0.007735915568123638 0.018766594473792652 0.004311795487217899
1426 -0.0017311946260682464 -0.005147365502398215 0.0021385448353622863
1402 0.001946315546555421 0.002833847678593672 -0.0031994097300516253
974 -0.0029839834564535845 -0.00505796988976444 0.007514511919143074
934 0.006302998968746272 0.0004961184727536438 -0.002199257265439263
1620 -0.011074910377473253 0.0017051314608953617 0.0062357787825748565
387 -0.016788725417658048 -0.00040383673615292744 -0.022748313215725003
935 0.003261444752177498 -0.011541169675738979 0.00667692148309232
1474 -0.0023549937797927166 -0.000509635774506872 0.0023581386107382613
548 -0.0034685539849589465 -0.0003845059914707278 -0.007224223162825963
2144 -0.011785184865429956 -0.004767630238726751 0.011477260748010554
496 -0.003164900642883011 0.00125296533388765 -0.0013490658020947092
123 0.011544313537593389 -0.0019621155953189347 0.005899494709000358
1193 0.012931290091053298 -0.025337428889446914 0.0008791289641388239
976 2.9052798184013993e-05 0.0006528125037018428 -0.003103505617446796
2313 0.0182918814991263 0.03135095544374002 -0.01359849706277632
1228 0.0034393986829039155 0.0031362048385300966 -0.0006257337472728634
530 0.006877837482077774 0.00442155595884106 -0.0015337919237825473
2029 -0.00415272457377358 0.0009913236879145546 0.00016209699589418006
631 0.0020473044931763177 0.0046279351635482024 0.0007061337032398433
837 -0.000716604908421772 -0.007521702828187524 -0.020154257109266334
1884 0.01022327883689733 0.0073870513583726375 0.002274843422292118
1322 0.02143049482387299 0.018181891103666466 -0.008448610368519198
1947 0.009461892886546192 0.001308169116135777 -0.005445233501169432
2253 -0.0022178632763575575 0.005225701352933569 -0.00981810491364099
646 0.0029811653916245167 -0.004582395079207437 0.0020910779619178607
2301 0.0013613029091323907 0.010451994439761518 -0.016784234450003935
121 0.0006476723527697784 -0.0014178985323711564 0.004524769820752452
988 0.008183614322995898 0.0025933588950534927 -7.406485118472675e-05
531 -0.007879012433449243 -0.0023003787184329664 -0.011621098561783673
600 -0.015501049528378484 -0.001957852411377904 0.012761719847826506
2071 -0.0005582752098680298 -0.0017466127862460642 -0.0038499151377447663
752 -0.006329464991751622 -0.005254285486039365 0.021137035548780127
1866 0.0023086725903538234 0.012120389522175517 -0.005354245185445219
2300 -0.00015779600644235287 0.0025742630570392607 0.00043824546786859687
1048 0.0016777928555820327 -0.000780833426390219 0.006007940458339396
2188 0.0004172855510339267 -1.7033410704659454e-05 0.0028393952315492145
2145 0.011408490935216049 -0.009534152909079004 0.001779870655832287
1091 0.0043827732376570125 0.044668459365099555 0.014994982174466475
570 -0.0058035929557419385 -0.0021734792716969955 -0.006571928914498484
1082 -0.0027412754499417137 0.015760234405863972 0.0027415152187763394
1872 0.010558877359486525 -0.00666693826107102 -0.009913854486178264
1050 0.008041644140392594 -0.007398876995249552 -0.0011977453518419402
2371 -0.0007783602966421421 -0.0009723867702558099 -0.011053887181663679
287 0.004488953574347699 0.01580002103682366 -0.006480471832442352
1611 -0.004118131004533528 -0.015592631297436179 -0.021507894993292472
2205 -0.0035344374954513025 0.0005541689481661395 0.012290530931812016
995 -0.0018341767642840066 0.00027908433351887243 -0.006152842172715257
989 0.0008505569763554096 -0.007327648144864333 0.013786748563165675
2373 0.007897396806352475 -0.010259987359749983 0.01818470120330945
874 0.0030865104441377246 0.005000924494268536 -0.0030924909149565114
1790 -0.006683797484194501 0.007329378340435621 0.003973756190086645
1868 -0.020455713073074328 -0.008337063085349537 -0.009127752458075258
1682 -0.0071097235733623655 0.025186414970984894 0.004118534765836621
549 0.014345744353941472 0.0021227237511185 -0.004426993074262003
2203 -0.0007353361781426685 0.016638242322277084 0.0034258052669234092
2340 0.015068656938652149 0.022111624527613092 0.0263940437251857
386 -0.0005357656038729881 0.011679769099781766 -0.009808170601595216
580 -0.0017243352645902107 0.0019988894483903355 0.00512296769404832
376 0.0010119790703335004 -0.002775798959800093 0.0015490992023184367
122 -0.002584335635311177 0.007160672014637888 -0.00032638944306978427
2150 -0.002035797675216334 0.004732604615120502 -0.023002747185013776
1864 0.008118099127326252 -0.0044831754159185 0.00043816455819208023
206 -0.008405991452544921 -0.005366322473298803 0.014621468017043305
2183 0.006091482872562512 -0.004325320628231985 -0.006095620279506819
2038 0.005972591230026194 0.0038772554948147053 0.0034806576960567637
1645 -0.0009166689666913041 -0.0013922398452433655 0.0004314218904475941
1083 0.007189295235006575 -0.007948077596771849 0.00966958566332164
901 0.0017956908070193873 -0.004106077128754266 -0.0020790746730334764
1317 0.00021123694776445834 0.0008242592699421875 0.011468910838445097
1804 -0.0025133207978179028 0.012477751580354865 0.0019517850887707821
1847 -0.002145741524320968 0.0235838815904241 -0.028202409485770425
1826 0.006855968378840794 0.0003531506080671874 -0.0088799630395308
1251 -0.006076812271953463 0.00019084097059203457 0.007046614763644087
263 -0.009018620764312169 0.008492726032692627 0.007586268731104525
264 0.0040653723079822875 0.007949242482651619 -0.002031472791386507
1740 -0.001314345517821929 0.0058889570013546545 -0.011307023342477567
2388 0.0214480600978308 0.0017861578633085451 0.005693280277216768
1789 0.002572631554026396 0.0010804542360357808 -0.004636602582534893
16 0.006606688917782666 0.0016714683697930032 -0.005951599276923957
261 -0.008679992545964561 -0.015943496361401566 0.0076728157689759215
1403 -0.0073422048069035056 0.009961208917100298 0.015199604135507647
1230 -0.004213518762651826 0.0011020161833239868 -0.001778558251928852
259 -0.0005452002132464902 -0.005298339842146219 0.00522735826576142
632 0.017841028742601368 -0.005393717815195426 -0.01077027576790161
419 0.017450454907354546 -0.01901393868473239 -0.0006691536770913113
887 -0.015577258952329276 0.001590625546868959 0.0070178335235753985
863 0.008380403763494363 0.0034596148628965517 7.470162835260239e-05
183 -0.0027078318701580207 -0.006021975503688265 0.0034340050207447214
370 -0.0029902922178523575 -5.372661421943836e-05 -0.0006423525361514263
469 -0.0022215710484357865 -0.0009143049318324077 0.0012049856642320537
1127 0.0025144876370994905 0.003829536287048129 -0.0004966335513697294
2311 -0.00015737374212578594 -0.0011123596692565272 -0.0006785624285992213
1825 0.0008452381371401306 -0.007350864406778765 -0.003336183212236221
2399 0.012009642574505697 -0.003512677012029003 0.01324778801496136
262 -0.005506617126145661 0.0036209169435013505 -0.0016201162046138404
1249 0.0023991953533743786 0.003520520872386833 0.005673781303020917
2339 -0.013722671385406796 -0.017137155047192668 -0.011825155689185683
1250 -0.004189729635892806 -0.008167229774640733 0.009727103040666745
996 -0.00639169740465459 -0.024380596441257948 0.0187306052595533
1777 0.0029374547821416717 0.005059922361950731 -0.0073295690078631634
647 -0.00710054523661316 -0.0004293175936838408 0.009579829557517808
1020 -0.000729707225349256 0.0031935927094740536 0.006570976661592847
1920 -0.025329865612157304 -0.013878390709437452 0.015232500794733173
897 -0.027044489964221558 0.004162955263950728 0.016003241940007712
1869 0.008199585201815145 0.01274517802231994 -0.016083200520197207
2030 -0.0016213159928492045 0.016815811752199775 0.018139103102321176
1404 0.013595633276068208 -0.00555883888195144 0.0022247892971965586
2151 0.0012619113350621337 -0.0014493465996894233 0.00912630175264402
1475 0.02866537450793706 -0.023450427034146282 -0.006131657110097527
808 0.0016884366282214338 0.004972658772715334 -0.0019292161663594797
1883 -0.009700339453506684 -0.012536586913297868 -0.0041530215439915955
1002 -0.00894438050331188 -0.021363335989200413 -0.022279484166277987
1316 0.012667441395891498 -0.016512961283785488 -0.01639819100241747
761 0.00019939035728633162 0.0022216332015213367 -0.0026936205386415917
809 0.004753025899813065 0.0037883876999881476 -0.0002652930232872525
1521 -0.006290078627171717 0.0252551915881679 0.0066507596738575175
260 0.004054283540185673 0.004874459880952772 0.0037871116023381014
1090 -0.006738011481978814 0.0022148087216311996 0.002813356254945255
1578 -0.004541934828286868 0.00869173398544281 -0.011236786919903386
579 0.0028817020394487493 0.0003975940416567478 -0.005277688449442446
73 -0.0034391966224243337 0.0024482607909172296 0.0031462763365466273
2251 -0.00045050475262383945 0.008648275565708618 -0.004091950484693437
2242 0.001966679251173513 -0.004086242644483444 -1.997359447135153e-05
1499 0.011451901728872201 0.005613216219237286 -0.0077553968005413185
2028 0.02786509572272562 -0.007065566672216273 -0.008884195962729489
1778 0.010950300914563008 0.025411664765138425 0.010130488546500213
1550 0.014898587558253353 -0.005136459477782042 0.011000387499238316
1446 -0.003749759364338971 0.007674481216578881 -0.007828196502215577
1570 -0.0007199893882358882 -0.001746141725650998 0.004272929995689113
2370 -0.01378068372536047 -0.006467606569248759 0.0016526386542118096
230 -0.0035970594747259644 0.0074813093576699494 -0.004860509198505112
1701 0.005150731539802793 0.013633897349335176 -0.009032190720638315
1511 0.006072541307216991 0.009636764991025662 0.007520839584325944
1079 0.003694617350542868 -0.010248445235803441 0.024767339048128896
754 -0.0034233075777201053 -0.002962387034667107 9.409687704790514e-05
664 -0.0004741499767866678 0.004009435600972506 0.0008351945880462765
702 -0.010109541345785957 -0.004190553760298981 -0.007779615743816847
1593 0.0018178220407501294 0.005323327926517107 0.015602074945436037
655 0.0011062388596673855 -0.004598010108716798 0.0013683069553645135
1861 -0.004357863065777574 0.0007297272947006325 0.008271484996054283
532 0.0049815171888838265 0.0003987843302084538 -0.0003019257401452495
2387 0.004404927913698243 -0.007298131458196011 0.0075361575363655595
1546 -0.0002750094460878833 -0.003672633673565916 0.00605040309026354
617 0.0068057148061708575 0.012196461950392219 0.006370261680859752
328 0.0067198866445043305 -0.000677879461249827 -0.009581450572940787
695 0.007619744477667948 -0.0072375481902814485 0.0007484223872296954
1992 -0.01595097334907365 -0.016836950404354366 0.019489798204470648
2067 0.012636337960527322 -0.003005027870543849 -0.0064538931549747575
1488 0.0036417397859801 -0.021854804829510424 -0.007256136148192847
700 0.001029479477583163 0.0008126418984304133 0.0028843064376560417
2131 -0.004535196538120919 -0.0041049489727127625 0.003958397217191738
1500 -0.004674921619688424 0.003964427042910921 -0.010294735810574855
1904 -0.007655030502850184 0.001150478316832359 5.5541518261189636e-05
2133 -0.0006020121800964228 -0.0019183297736622654 0.002392747228276421
103 0.0019922898676085266 -0.001978789423753219 0.0035823463693920327
1332 -0.01134011078798884 -0.0054389620919771805 0.007097144806467837
643 0.0011063452597955214 -0.0007382034482451439 0.0025380594887431693
1720 0.0048485093937190435 -0.0005660541581661194 -0.004335163404124156
1486 0.004682501424753273 -0.0013224748315969297 -0.0015333852689481855
2376 -0.01658133666200855 -0.008927626704582322 0.03894102842082688
1256 -0.029146321453359037 0.0203759551049164 0.0004298429576939633
179 -0.0010186739123466695 0.017766145753069767 -0.02638005396194654
1377 -0.01782239486008984 -0.031154829721448216 -0.003750413179464908
2374 0.007163858355748395 -0.00427977722374303 0.0025007913084988996
641 0.003106363454798004 0.0042426741376860675 0.007286722665206878
688 0.001046092336326279 -0.004418547132266712 0.0011139180795594842
1878 -0.007359988549879592 0.009083956944037387 -0.01811894290932068
1304 0.011733343965840717 -0.0074214519588084475 -0.0034663338204209554
1118 0.012274657377010901 0.015408098407185945 -0.009460228366668197
1573 -0.0018666753057734215 -0.004834283017772899 -0.002762171060337793
2297 0.0010234483455647406 0.023677908285313434 -0.0035874135868256903
2351 -0.0020965677485965217 0.01029617822653474 -0.0064205757876231
665 -0.010571592442396948 -0.02402453007882118 0.004117948166448944
2324 -0.010571779673797521 -0.009406665880150834 -0.015618261878508276
1109 0.0014027824199967266 0.011302786469644313 0.03458360101803752
2277 -0.006441115835728357 0.00020890418432656754 -0.006368302473000478
1591 0.002844083668163138 0.001389907389852912 0.003173396696422649
310 -0.004627277101645805 0.0034697809494439015 0.00020717608290520456
1007 -0.003048715119485978 0.00030600675034648725 -0.015395858635419455
2162 0.0029219942459573532 -0.00010390133857392745 -0.003076718970409565
456 -0.0020452018457881977 0.008684504163461903 -0.021230398877304296
1375 0.004037229339291151 -0.003313345577172501 -0.002672150181555593
1080 0.0031319083803012008 0.005129652978359859 -0.017466413080578072
472 -0.0022576463770636475 -0.005341419833891525 -0.007624309046453933
1501 -0.0016948402461738445 0.0036266898407650533 0.0004297064092812352
117 0.0013850478004602423 -0.00016053397123321742 -0.007244655087417028
2375 -0.01849782909373109 0.0014019721508679325 -0.027284865236926584
1160 0.01126440702215752 -0.014092264609390667 0.018268867633492742
306 0.0027551457244321094 0.003977723401906634 0.01104788024892901
1715 -0.00795538855181899 -0.009162483622693209 0.0027738124682448674
1748 0.001459730932304139 -0.004942489079358791 0.002046270429618686
2228 -0.0063994302341545874 0.003825691268286293 -0.0031385341839297192
2381 -0.00545414304152787 -0.018015733130413398 0.010282614030325283
1723 0.004441229597878912 -0.0037048233972967275 0.006965847696491048
490 0.0038303229768512164 -0.002383340481598072 0.001555479150183701
1506 -0.005844530394785107 -0.007258751523365058 0.0073766307843975655
2397 -0.007202255185549188 -0.022554099210135993 -0.028098423805491303
2369 -0.020048950269581343 -0.01830179977620296 -0.00807892065802295
1670 -0.0004845163794909968 0.02528534155499691 -0.0019747112384232786
1602 0.007921547260221415 0.012168372988590154 0.014772719371725468
2276 -0.005696594069758951 -0.0013217294374440777 -0.00470918011909281
2023 0.0036442849525483347 -0.006613733601937073 0.0021716033773822594
1504 0.0015921406977580318 -0.003060397135146139 0.006809269441722957
1117 0.0011955130835104547 0.0006376736658861328 -0.007756812520848905
731 -0.02974624399042604 0.0024734172929874363 0.00745029645463633
1072 -0.0016848109725407809 0.0022844184382713553 0.004090940399028939
1490 -0.001917801342523923 -0.00037365648618483066 0.008217701365732296
1905 0.015330817437196968 -0.023934658353830983 -0.007991798485820432
1548 0.004558908217240005 0.012415911460404465 0.012190371676091568
331 -0.010764240203760232 -0.004176307530312721 -0.0025252309427133625
1616 -0.00016907864154109604 0.017760481654920546 0.019315010400016343
1725 -0.00952832947322299 -0.004079403426820224 -0.015520044694758142
213 0.011089310252193847 -0.007855431061736997 0.00045138731750056895
1615 -0.004305009606313462 0.00298436277010941 0.005406225802490328
22 0.0004667184551192573 0.006494678596029865 -0.005057093960000241
2240 0.003007256089769342 -0.0016423524094426674 -0.004757587079514596
1714 -0.004382814082354989 -0.0026436584725225225 -0.0026490562067258924
1735 0.0014889052000503545 0.00023793770226391057 0.00015204179158811757
2227 -0.00037759174047203095 0.00306180305208612 -0.002494193252761632
1021 -0.0019166174288436175 0.0011973248007507544 0.0012543227037052288
2279 -0.0018851130466575779 0.010213548254059577 0.01468323840111703
755 0.0035784594859169967 0.013102874191231507 0.0014218902237273412
1462 0.009391518878794596 0.0029648972409045404 0.008227666545873829
1269 -0.0014974594316583423 0.004319898290014987 -0.01168473143445017
1617 -0.004086924545870959 0.007813356302229112 0.008429782362259075
2350 0.0028533216859343903 0.0075091728264684784 -0.0008904265327140405
1432 -0.0021379873069156128 -0.005238427111210552 -0.0039019014040392037
1189 -0.004587549224975361 -0.005407091579036221 0.004145739543695388
1498 0.0028675538621120715 0.0038129810117848383 -0.0026648703089617904
2380 -0.002341322768118801 -0.004470680292541529 -0.006721060981243499
2352 -0.006766742035888576 0.01590596490435831 -0.0008712023288458223
2229 0.014763583698742271 -0.0034922635522052475 0.011262765197225967
302 0.021152481748113534 0.0061167100991385715 -0.013846984402848372
1565 0.0019670649213530513 0.020655442873505018 -0.028774372194604932
534 0.0044044026288397285 0.01046350190282929 0.015562543690948427
380 0.0024485706218094396 0.006399355075423186 0.00040548998239072924
2275 -0.00564745384662868 -0.0010904597029339786 -0.004591727369303591
1376 0.009982542190757423 -0.009590260298556015 0.0026250247486803084
403 -0.0011737579481902538 -0.001902252616735813 -0.002367915117193521
694 0.003945708515391824 -0.003280767301362243 0.001161905965683718
1417 0.0050075673248105145 -0.0014385261280381785 -0.004971938082416307
492 -0.0026881919275314357 -0.024029944595726185 0.0100101537546205
1463 0.0007792536543007573 0.002029724217321298 -0.01018668690059133
1387 0.0025602917109424916 -0.005843963704458748 0.006026327262072253
1812 -0.008597327684891416 -0.006590406457457654 -0.0036613207261978215
2241 0.007838322116180544 -0.02181433013318117 -0.011028410567579845
1303 -0.0027439965769982416 0.0017903405983872402 -0.0010340119080887624
1331 0.0030796955243530843 0.00416226671757344 0.005660434982708585
1419 -0.0010998176635634356 0.0023000174197721087 -0.0028809383770910142
2163 0.0034935750307859524 -0.0006842374937974001 -0.004922653857092936
473 0.004969265168074765 -0.004390694312297775 0.007273180568781242
2034 0.012677630009455031 -0.006595509939656026 -0.005793643365575277
332 -0.006825217205088899 -0.0024182628145120086 -0.01203695251551854
311 -0.01733099067878257 -0.005053145997726538 -0.0036635378799762383
91 0.005121715242469043 -0.0020129722596349785 -0.00323637616674
1452 -0.0015186819126559504 -0.01381801723392454 0.0026291919714710064
1276 -0.000494947089521141 0.0009041563833393402 -0.0006856557570880219
1716 -0.010999769072543374 -0.003789491812701309 -0.010489381505904637
719 -0.0031624707420766012 0.0022484888852868524 0.004999242720336113
2201 -0.002054205794987206 -0.004891774319779899 -0.016895942427208814
178 0.002357318608367746 0.002764034776123682 -0.0012783648070879069
964 -0.0014405202668756752 -0.0005200499212932779 -0.0015670070800891782
1165 0.007620728795546822 -0.00499757865231989 0.0031321072923229413
1519 0.003031438884496188 -0.0017406998262296332 0.001266233704962375
2001 0.01638628928541783 0.005018962033012221 0.003959237968224382
1078 0.0024570150675994554 -0.0033804259611585562 -0.0017124357671002097
1788 0.0009753817178997222 0.017673875618050602 -0.0025641303357024103
2384 -0.0030982092040411947 -0.022285236409242876 0.009172441642431195
1503 0.006702731059105089 0.014664953773170538 0.0066838614003538275
1497 -0.012734679313061426 0.013854657241099837 -0.004959810275144857
696 0.0005511709834961716 -0.004140706035507374 0.003770380025068339
149 0.0034293332236366427 -0.007410618067356407 0.011419027060296285
1721 0.004810231623112415 0.013482442713321368 0.004575878409732177
1267 -0.003970682920205893 -0.0033451976117899896 0.005389609406533528
573 0.005170152121131319 0.00495340132556344 -0.00019525474688871433
1161 0.007917604883829773 -0.0016745140597491579 -0.0023835119764615636
1487 0.008800833523216145 -0.001513100958737238 0.018405706155589077
1022 -0.004517608165466298 -0.004843886618351716 -0.008109833404004401
333 -0.025058572706004742 -0.008486500133516383 0.014654716775548316
1166 -0.00454761213784197 0.016932540454116917 -0.010191696567213276
1167 -0.009264472134323621 0.01441451831263456 -0.013898059681372116
1862 -0.0053023015774668475 -0.0002572505096648497 0.010902898655016905
369 0.012968633090773288 0.004700549262104275 0.0031107596195114116
756 0.015082640373107822 -0.008312767482502264 -0.0015876271917834536
1277 0.006053982547653814 -0.0029003448300316224 -0.014149743622317768
2296 0.0004389995498347757 -0.0036451125648644398 0.0003334160005626168
2382 0.00786040800822405 0.011504924327783637 0.0009770460229377518
1786 -0.0013374059253573717 0.0015344086881777265 -0.0003084182516673437
1903 -0.000893281308771654 -0.0015267098938796344 -0.0016388365026127239
1330 -0.002305163573941088 -0.00741187598214867 0.004404925298589318
1491 -0.00021456358871530762 -0.0010868197369789244 0.0032376384064642756
1451 -0.004051239242681188 -0.0485924366557067 0.01067255604931177
1736 -0.012904923733331413 0.00832372604489578 -0.011468715128063436
1489 -0.00491658685486221 -0.002532932999772665 0.006147270018277943
2159 0.01894992205182902 -0.011749219938264641 -0.019331899265570184
2348 0.008733374201012747 0.01250381989448321 0.01586368400416488
1601 0.019261014377261763 -0.015116321759390157 -0.0072933676506518556
454 0.0017517719807820125 -0.0032932878651343086 0.0013930224341689604
690 0.0006295310954097626 0.009132901733281192 0.00549466062062062
511 -0.0006249557083230689 -0.003769995648434516 -0.008971943982419534
1510 -0.0014441257211379418 0.0068324043121037485 0.0015231519661419869
1418 0.0036731545825808105 0.0009948870404891744 -0.0007831755131001918
491 -0.006276480593668414 -0.0013478411999693846 -0.026425681263752224
1811 0.005671584101362715 0.013867819757444055 -0.0022399507326880735
858 0.01436670657488444 -0.02360869299476585 -0.0029763878745316676
1145 0.004795523709327846 -0.011971209340550413 0.002040358983653938
965 -0.0008760763674808344 -0.019835267253284793 -0.0017774685674708625
1700 -0.003071792412243564 -0.007481356053294675 -0.002105650124832184
644 0.01463668680912381 0.01987146228065791 0.0085248523782793
666 0.028841635080671724 -0.014290765100447057 -0.011726691538761016
525 0.02106148979095722 0.019209268247517897 0.016844234474020572
817 -0.0010398740938385234 0.0016333565890108161 0.004279738158779611
405 -0.012177620987776524 0.016499036810967094 0.004535396762301276
2160 -0.0016136562619656273 -0.004131955752193846 0.007371998226734367
1592 0.0008252774234244354 -0.012582704979472325 -0.010377179541730031
104 0.0005280613261597664 -0.002428978248271188 0.0018923684903987778
1699 0.007386944802783713 7.16885283678882e-05 -0.004228305457309558
212 -0.0074893485736302065 0.003473437558547464 -0.00034059775688168134
92 0.013321318803354418 -0.03084095575694893 -0.004209298178372881
1268 -0.01323789175563618 -0.006456137011344109 0.02621224343204642
2032 -0.0007968330427110214 0.0015503686303126342 -0.0015082084183612367
1073 0.011868244238813727 -0.0015190346709219684 0.006980637426061414
1374 0.0019025802682340021 -0.0006151215220588345 -0.0025431729698458514
2000 -0.001649971844782021 0.015969820187564866 -0.0036630800548325296
2323 -0.0009464302845886403 -0.006161522963379255 -0.0008300792780588395
1389 0.033216866067341005 -0.010799271955948143 0.015569313815800127
379 0.0026941441667018328 -0.0022390069587521436 -0.0019182445210195183
2278 -0.0014685126252095072 -0.003458436643451989 0.0011860059765479356
116 0.007808863979716146 -0.02042292770244662 -0.0032081506622873416
1505 -0.010960792901616135 0.012556394896428107 -0.0003678336389358444
2280 -0.00350674856020441 -0.018869235100009107 0.01043569542952323
1724 0.019153789061518357 0.008625773403664239 -0.013624302103126283
1495 -0.003905424520497961 0.002407467168927495 -0.0002949233614977784
1190 0.013178475295219344 -0.007958154965628503 -0.009522641424052214
1159 -0.00638090933211438 -0.0016165963918408732 0.004171021035791844
618 -0.0007257491494838008 0.014654455287077938 0.010394120708299433
2158 -0.000263311623725272 -0.0046719104779169626 -0.002837054832557959
1305 -0.024904062431002006 0.017717162669826234 0.003843357220970411
689 0.004534621886305275 -0.009088117051353576 0.012147103198165228
1257 0.013208829128238647 0.010361650699493371 -0.019578546313711254
1388 -0.01927000584868884 0.013920715097411173 -0.003048773058581011
1999 0.008250194507124522 0.00500494031149714 0.005589449445850798
1372 -0.0006664103310214185 -0.007089810407305639 -0.005499144089757631
93 0.015466623402023257 0.0037627097039597272 -0.013736938828638854
404 -0.004207580743528855 0.00523075261187476 0.002077394537728195
2200 -0.0031573140999610243 -0.004617818802798402 -0.010103066107444072
1737 0.010083036028161088 -0.0067175114059987795 0.0018433747679509772
732 0.008896209242319346 0.0264369068092477 -0.004483876672553559
616 -0.005298190953877274 -0.0033742589775739525 -0.00906074210953725
474 -0.010527868220261208 -0.015493606824771229 0.016030773287947886
455 0.022844445694011308 -0.0027538740893815012 0.005449709224405613
513 0.006712367666340569 -0.012115037713731729 -0.011957732639590626
2295 0.0014181035918957867 -0.014813803138850933 -0.01249265306886709
1255 -0.005199044534933901 0.009131754859977272 0.0015382853469348289
1191 -0.003310623317905428 0.010024840590297856 0.0163952708519786
1092 -0.0066746251525494306 0.0046994165662034085 0.004140550951332537
818 0.018298756436591297 -0.0066322810478094225 -0.014473387478319024
2239 -0.005135478914490075 -0.0008177323819048564 0.003910891670103734
105 0.006654992917212987 0.0018626027152061474 0.011835847769332013
1863 -0.00906968997160561 0.003995972889789698 0.007831372970086254
1433 -0.010482196629488743 0.0019129400266679538 -0.004366917380947359
1669 -0.00046015847060737925 -0.001273437737415841 0.002473935648671692
1450 -2.0454571379550652e-06 -0.0001517405769640531 -0.0002685708809096305
220 0.010219772787660815 0.0016784367437974984 0.0078031157511767955
2066 -0.010587775895251766 0.002000755373295344 0.004692329107022556
222 0.0011471682253127028 -0.005015983926195315 0.006300330048831881
447 0.000846970868120399 -0.0010072792618729084 0.007771442695736607
1119 0.005967123106414247 0.01226513838449275 0.012164540372444847
2024 0.00467732059237497 -0.005891014339931196 0.0025987112124021966
2293 0.00037774420661414887 0.006625397774817345 0.004249424358740077
533 0.005303123314960296 -0.0015134015962090211 -0.0033523751622709526
445 -0.0033845095858226065 -0.0022598951784316558 0.008362704205487974
1600 0.004557004175931782 0.003917610170726921 0.0012394077171707307
1618 -0.003347790648618044 0.0039126410722675736 -0.005071815168161726
2368 -0.006227030561760317 -0.0032572260623124124 -0.0009385749722009364
2317 -7.930876740338795e-05 -0.004278700754612872 -0.00105878296331904
1121 0.0019272039548548353 0.005995831694036635 -0.006573142676192757
1876 0.002571852744856692 0.002636407529376973 0.0009683474617673233
1074 -0.012550943832373419 0.003569030858389526 0.007681511019933493
23 -0.0016932259286320695 -0.007555098373292974 0.0009468351266542592
512 0.005702384291506227 -0.009579382840869465 -0.011557132251285367
1991 0.015051772265823717 -0.020792145390936875 0.0028741915977820286
1278 0.018608398396916637 0.020313418266351486 0.002840114846206999
819 0.0021429967547611085 0.0004254177564949566 0.0012771784946876764
279 0.010136704424015062 -0.008520965503742515 -0.001980489163598324
229 -0.0032781282149175546 0.00284187756092253 -0.000989521307313512
221 0.014275400324109587 0.005146268472966335 0.008435630324842404
329 0.012487031454488493 0.003508866294907886 -0.011364979463612035
2161 -0.0005644048360142916 0.0005411651845863192 0.0006264486853916042
2395 -0.0013602917465194344 -0.0005384628837924679 -0.0027495223297159567
1502 -0.013909352677149316 0.008255395471170499 0.0024838316214514044
1146 -0.001608232047110269 0.00625453422395529 0.0052952838808831195
966 0.005402509971395085 0.008281488026764905 -0.0017070839222627864
2383 -0.00618447472703091 0.0023301185517597537 -0.0008932882112683246
1464 0.0010953928392749628 -0.005571321595508283 -0.0003428333332775709
231 -0.0022669784044296168 -0.0028277731540352967 0.005711625741874109
2202 0.0012938070555340436 -0.008093824871540626 -0.006949805027978689
312 -0.006022457191002854 -0.01216270122962241 0.003172419691985226
211 -6.737181838226095e-05 0.0026199183310563006 -0.0005412189223077394
1144 0.0016928574559972077 -0.004858460420309685 0.002077810738095388
180 0.005040411908273288 -0.008580314766565367 0.006804835976107973
762 -0.0036028057038964916 0.004781084548646155 -0.0015668498474683235
330 0.008118655243698689 -0.006559485036780595 -0.005099005146676879
1512 -0.0003041534343884878 0.011610931629458839 -0.010788155225934378
640 -0.0012025358049231306 -0.0005190441525829376 -0.00020928064985051626
1877 0.008003352254298244 -0.006488578011534361 0.021333564458371618
1023 -0.006555635683021777 0.00020144264369265736 0.005521680943714179
1749 0.007171399426089125 0.00023914485696593268 0.0011732786830582465
1434 0.007283667856517915 0.0038492374741627864 -0.009580669276111932
1722 -0.002228737903001212 0.002322398358625778 -0.016040074850110848
2033 0.0019948032286092004 -0.0056376121859492 -0.006312130684508925
381 0.00597056306293145 0.005257883447600123 -0.0054553319350692225
2132 -0.0035605431095034473 0.0034450014156309386 0.011241583548354018
730 -0.004513800902277035 0.005435914110025923 0.004716305585087715
1747 0.002530139943760588 -0.003026836003619056 0.002305874987294898
301 -0.0002828029976663967 0.0013715721694360537 -0.0033370666108041495
1496 -0.0031400855759136756 0.0024156410057213397 0.012649869143979055
657 0.0008854715296549992 -0.004593489397038106 0.000927636965049012
760 -0.0037466589239779757 0.0023239264376373383 -0.002963309196823559
2396 0.008393040659011744 -0.02299010397382488 -0.0011770559492779507
1547 -0.0171105456723868 0.004247487434240963 0.004180548382502479
2065 -0.0019706152153461344 -0.010039865044250194 0.0005509051628220942
1619 0.0015052040774187509 0.008405474509876332 -0.005267649866493286
2318 7.135742923275583e-05 0.00786530514501077 0.007563122705428489
1575 -0.012847145541867272 -0.007326904357585985 -0.0007498239602694819
1671 -0.0012031163865463459 -0.01605159092528333 0.0028752594929764255
2298 -4.6144325637891114e-05 0.008873707608227258 -0.0008354576494136121
1810 -0.0023683443193984505 0.0008570241618997312 0.0025315390658839313
1520 0.00661750116164761 0.0005119961524460067 0.010401250754529445
323 0.0016625805243206937 -0.004224933661191579 -0.006996665590927588
1012 0.004685996672920162 0.00354919030726772 0.002871858932405069
954 0.01861992788552328 -0.015299455853245835 0.01176320055687467
1235 -0.0010912181193114274 0.0011033708658892685 0.0043130662163740315
2175 -0.005126063307980049 -0.015302237662048546 0.0038591909114922226
991 -0.001720610115364711 -0.0007412164663732677 -0.006736171563993729
1406 -0.003381019548208399 0.009797400521007634 -7.995435821987271e-05
1182 -0.014248682941230733 0.009828279800659114 -0.001231545621826146
1213 0.003031190315011177 0.0022176196000435852 0.004002322585880521
1133 -0.006422528014606038 0.019760942585776937 -0.019790765260486218
1449 -0.00039852134328141413 -0.007857852610414435 0.003454198689042971
192 0.0009740105139046159 -0.002679553750182116 0.028436971360401353
992 0.005215295345427384 -0.006838351485099229 -0.019231745226933585
2052 -0.002221716604974361 -0.020608029894913216 0.008156233163937276
2355 0.009312871195969021 -0.021075360298809985 -0.0012450877038957435
208 0.0024335474040398496 0.0021824124354642305 -0.006771668783843229
2365 -0.0015134022747097587 0.007804282312078355 -0.004025383390651468
1413 0.0023254445224868176 -0.0065997273933614065 -0.007809671847210128
1264 -0.002550995147320928 0.008567872634561179 -0.000466641059283023
1177 -0.0013196662416583304 -0.005148164377320775 0.004945855747981492
1515 -0.003105016569613574 0.0012071870519049738 -0.0009042702517910668
1215 -0.023062100714107667 -0.001454150865877222 -0.01285501019989507
2336 -0.00685304077402828 -0.03135891856900667 0.008172877434043666
1339 0.006681277895817245 -0.008223770314228301 0.001256949711905904
324 -0.00830370395785908 -0.013968328875656308 -0.017222247331016342
307 -0.0033978972890088676 0.0004289240795783484 0.0025349396811919344
1840 -0.0012237898685856403 -0.003064525477160852 0.003199009371706687
1360 0.003890020034061591 0.003301637365893978 0.00033794369941713456
2156 0.0017321902342751425 0.004910363310614979 0.006094788789903331
1998 -0.008115168523080972 0.0002453555963667831 0.0032381367347983202
1494 0.015476576700714085 -0.010159303845125292 -0.016729988615838583
1314 -0.01482043020071395 0.006975528395833441 -0.015858029672352537
1411 0.00020273034434452344 -0.005914720549378966 -0.003139450927305454
2358 0.006039918086071285 -0.005695260628294466 0.008197252371636331
1039 -0.0046791845102805586 0.003245204565376847 -0.005619043881380389
2139 0.014091183227129248 0.01952023248690604 0.013159422788737924
1209 0.0036328063087999293 0.005443131627105046 -0.012130277195383189
1207 -0.001418227331718135 -0.001827928025692052 -0.00324764864602281
281 0.023284430101496056 0.005583718935628802 -0.0167847285371197
2367 -0.017355459449899024 -0.003632806153349342 -0.02928629029109327
1813 0.0012793946737503794 0.0009027803158345094 0.0018908259994003457
2379 0.0036489153603643104 0.014410481116310322 0.010043829478945068
651 -0.007545242044830805 -0.010178748145595851 -0.02001384039101782
2359 -0.0013033565693782796 -0.004912753898306485 -0.003946462519606059
1674 0.02544568368857691 -0.003200636371601693 -0.011539144579628676
1522 -0.001956440773815636 0.0077553431066150905 0.0038670480958172757
712 0.005578011824906794 0.0011481086812985726 0.004157080818332204
595 0.0010782692553937324 0.00023304225793074708 0.0028100013429693247
1352 -0.015322115409508908 -0.012064247257014615 -0.012120872046624565
1814 0.01593608378888873 -0.016862881328581426 0.002199727493294754
1340 0.00353959440060607 0.014973530550100726 0.020630583043737112
1353 -0.021617464630853334 0.0238704208930829 0.007950648824431118
1103 0.008287467237110548 -0.006602512241235609 0.016421428540815703
1844 -0.013818149095317155 -0.0045106391026071965 -0.007685639458210861
1412 0.002939555354362121 -0.014074301575519553 0.0033116680470492077
2327 0.022685365945774506 -0.013291240861050425 -0.011086614861719283
1234 0.0011815623464007572 -0.0008759106810573155 0.0007622054041334817
870 0.023455172076907973 0.00658531018768384 -0.006137135211630626
1921 0.007593452027970946 0.005499668603929785 0.007914519008749715
2087 -0.0032348575296991893 -0.0024961337632738163 0.02448021958647795
910 -0.00462773083581953 0.0031509986153357185 -0.004210441122549095
2009 0.001209188932295175 -0.004173006395186207 -0.009812818946796238
1201 0.00048430531218826133 -0.0015009186654305654 -0.005398240537239798
2337 -0.0025601397750075164 -0.005979407922914659 0.0035933070086508322
1466 -0.0037324906479314674 -0.0025216081764008933 0.02363945544287006
190 0.0015144827430036076 -0.006328098870431134 -0.00012486207000929147
1253 0.015572576280811923 0.021097451098919178 -0.0037418918660091444
2051 -0.0030468825387086297 -0.008225985685737326 0.0004971005387070284
203 0.017457275419272427 -0.01356869043629553 -0.013085693485313975
53 0.004306919410016214 2.085066678648529e-05 0.004927871771841845
209 0.015559931362829875 0.02143279049579029 0.0004983584707712172
952 0.00657277335287641 -0.0014605544133805498 -0.001053380266620508
1097 -0.008596003155061179 -0.011292091563181445 -0.014354480342137203
1285 -0.003082628914333113 -0.001604141280419809 -0.0031820482268017343
1223 -0.0037086227726231768 -0.009245117670788724 0.001444635023062352
596 0.015997093533094562 0.030121452395171073 -0.00743503278007447
126 0.0021832573697586626 -0.010532620238660199 0.00865438153957502
1380 0.030152059384854695 0.003917899343724153 0.012119988762107275
1922 0.006039224141736989 0.005699585841743481 0.00701997573856954
1041 0.002993522900590949 0.005857123251078648 0.00023538318090910818
2157 0.011127483826619008 0.0009904535565401701 -0.0018222347945452122
1807 -0.0025262351168194907 0.0006185264244569665 -0.005233919364000014
2182 0.006050680354342831 0.0011388781686213225 -0.00013450140881736598
2010 -0.006582892568368752 0.0029765463711309754 -0.00677293364796965
1860 -0.00552552914116491 0.010556314699941682 0.02348406845847834
1456 -0.00017101804620346276 0.001761468000188901 0.0010414781449911627
911 -0.0033148883938836303 -0.009111018888336852 -0.009258353557072007
1956 -0.01045156670368888 -0.002376266510181469 -0.02122873227744878
2002 -0.011393595182427324 0.003070973436894685 0.0006879996527226393
1013 -0.01511019352083078 -0.028654108647708808 -0.015032240440654506
2262 -0.011427776548350905 -0.005382413012517527 0.01372788243051908
322 -0.006167379515773031 0.0016443180929669708 -0.00026009980717449805
1955 0.003962803431913758 -0.003533027351579261 -0.0030797830433765055
210 0.014226095314049546 -0.015427920017548006 0.010563701789974428
1359 0.010512962728822876 0.004060786889853836 -0.003445872592934081
1195 -0.0004879433859198482 0.0001447804035726584 -0.005918995454671463
48 0.00982705435401965 -0.009985161407835464 0.007970616088495166
43 0.0013827922507056265 -0.005947373942698249 -0.004767731441226188
1842 0.005487720565155093 -0.017781969454296283 0.012650583755475129
2164 0.00749715930242471 -0.0015242137125545732 0.0006746240656499254
2362 -0.00159246898254295 0.0005304410616793756 -0.005937471994770794
1518 0.013357651643450005 0.0033208863235722696 -0.006248604399771762
1493 0.01904793510901288 -0.009982789073239176 0.02327307937670502
1222 0.00782857289916396 -0.0035892612792392674 0.004363457636070587
1858 0.0007058258048310479 -0.007604623966371076 0.003263586107392853
1761 0.019216349639742045 0.00950096671004038 -0.016067251654833376
1178 -0.006094996641475169 -0.018562965656582806 0.017340821192249434
13 0.005202023228916543 -0.000559699771206879 0.004679070827917218
1923 0.010597985495049958 0.005452741693126779 0.008721797081878407
1312 0.004450280994154547 0.00024204846690596747 0.005865355198814694
46 -0.0018060295203958323 0.0033125456831474714 -0.0017749370014654546
1202 -0.0014823610961689879 -0.0026419216914025613 -0.004852205054853468
2353 -7.631551423373206e-05 -0.0008831031524649594 0.00456721269277161
175 -0.0004028156156902053 0.0022823931385877357 0.002392239914334398
868 0.002742848922953492 0.00022278930483023745 0.002205117021469652
1556 0.005974732287071924 -0.0010931446856622875 0.011865616726973229
1102 -0.004122857140346108 -0.0015534849278366848 0.002551187678487617
106 -0.0046871659580108435 1.3818601730263223e-05 -0.0029143834156394282
191 0.027809744439148413 -0.0010368470860429478 -0.017863839293728846
19 -0.005112171277791813 -0.0039976494965518064 -0.003032555734485689
2363 0.005371953849888187 0.0011779459401515676 -0.0017924941604020466
497 -0.0007072013673108102 -0.0019817360470183246 0.008197584824132602
1808 -0.011847680452277194 0.009605727850242293 -0.024274283478416
2166 -0.013677251066501592 0.004920503231263993 0.0029634789701112967
953 0.021306003202796193 -0.008123773308506107 -0.0012295915073440894
1514 -0.0019076218009895347 0.027226160606358824 -0.017362172010593202
1040 0.010146232556394581 -0.0058888611059398 0.0013251047240968646
1134 -0.0068824178437911915 -0.001164197468398944 0.0005471628724753969
1238 0.0026172572205613513 0.0012612016059927113 -0.010959487083225318
1096 0.0005621522917308215 -0.0011102629416333354 -0.0036408736951724805
1984 0.0023038579408861475 0.0013621036312137056 -0.0020934870730586887
1934 -0.015385047738554043 -9.300946297330507e-05 0.021848172463378782
1252 0.004366348200606864 0.006917402685397371 0.004650048738316787
308 -0.009114161903439617 -0.008589530292364776 -0.005027082665221077
1986 0.027673752145783596 0.025441912169676548 -0.00212836219732683
2092 -0.002625279990977753 0.0021172411984350568 0.008091934349812641
1667 0.006310405726972981 -0.007210198656856497 -0.00502902490063419
1104 0.004039889722929816 -0.00795559041065066 -0.0062665375198912975
1098 0.015212170608380931 0.002455621442740546 -0.011639508218000846
282 -0.0034125633047168476 -0.018312894361727023 -0.014406585259215418
1087 0.0015611122096967022 0.0005349283736528147 -0.00039047521613299035
924 -0.0072453536292304815 0.00473653268943309 -0.005230673165117388
1759 0.0047476748195207485 0.003490177472847036 -0.006044105880193184
2137 0.006531781813826735 0.004004061282538128 -0.0024003294973892236
1517 -0.013109005828269663 -0.003771567232594791 0.008344567899958823
2196 0.002014701552917533 -0.014865386985758292 -0.031709859361986094
869 0.00770476518883428 -0.01392428213038293 0.019936589052150375
2155 0.005148233258761009 0.004167081152228011 0.0016209848695679847
2138 -0.007668638802839755 0.012380601823820182 0.0023649741076510857
658 -0.0016894894327464818 -0.001941298292050477 -0.001873865405026487
2366 0.0014177709306870362 0.012411971997372288 0.001395614309190281
891 0.019667351872646843 -0.018764143379277776 0.018416763620881585
1327 -0.004646779135341275 -0.0025683968614661702 0.00011538059704733678
1516 -0.004547107620168714 0.001216882194279384 -0.0029729791955306144
1467 -0.011611797002662648 0.009357559351344299 0.004765019725346122
1407 0.0024738387781903636 0.019075647737156757 -0.029627162888456588
2097 -0.0002781041713765138 -0.013511337293675638 0.0016516638012173208
102 0.004659591547156153 -0.003894865798132584 0.0012737203038094456
198 -0.005634602813490572 -0.013354778501519842 0.005781454616883634
20 -0.005033560112975105 -0.005179445712442088 -0.015796894583930913
2260 -0.007388484399173941 -0.0008428171493842194 0.0016096236715458891
438 -0.009982288549068696 -0.010269851302153597 -0.007717390613662694
1028 -0.004919097326426631 -0.01441939470652853 -0.007146791124338127
202 0.0023418613525701196 -0.001564692281862331 0.001583893793588211
1265 0.011105654672296232 0.017898790774162388 0.006663733351120195
1465 -0.0021712636385280556 0.0023658822368303684 0.007117529519183337
1845 -0.017262452127071205 -0.0018646715125862016 -0.0032515044809721155
1529 -0.00715979876346936 0.023898623788594264 -0.0017688857818814508
1555 -0.0007004712203878498 0.0015391147065420066 -0.0009904403724785744
1997 -0.015499276967010455 -0.00531403707268808 -0.010357987975031934
124 0.005516662820729349 -0.0027018786193207865 0.005894636378536728
1358 -0.005293072435645866 -0.002848514045376403 0.012264608751892248
679 -0.0048708792281002816 -0.001994232512325384 -0.00023117425669272692
2357 -0.008502166683105274 0.002710523082936915 -0.013982624782910912
1214 0.01099437265826094 -0.0030312362148982403 -0.0046694718258544375
2003 -0.003224386746579218 -0.002970578881161525 -0.006638495881620318
55 -0.0009043927402937982 0.0009536992261700975 0.006754599236217769
204 0.012678862878756776 0.0037785141418852 0.026039414317946177
681 0.002824801477939245 0.0006044932284631987 -0.009683124702305698
1237 -0.003933608513068111 -0.0020646386345991303 0.0014375601604545206
15 0.00867161977242233 -0.0029080268109812884 -0.023189695467529588
1843 -0.011143391282769458 -0.007365551441557384 -0.0032427697433643206
71 0.017696706387956493 0.006293063022222528 -0.01475118266501305
1480 -0.001464642000352715 0.002294361931346787 -0.0019359875088444153
2335 -0.00045958670609025706 0.00657189853662244 0.008150763938074469
1530 -0.006792243481861316 -0.011007961404340611 0.005109655427572869
1996 0.0005053927638259846 -0.00660736859846668 0.0034420208639440166
714 0.0273104143227831 0.003330893136125986 -0.012933121102884852
309 0.029972625436364243 0.010523609217984535 0.019768683094612664
1027 -0.0023674793549903236 0.0019147755094814202 -0.002989289414543623
125 0.014472353758403887 0.005611334102065056 -0.011152174812952935
1673 -0.01829912608107107 -0.001427018100180285 -0.006327683409629123
107 -0.007402601253608541 0.0015113976901660773 0.014961437646813625
60 0.009651095507698715 0.002500424668453193 0.0038802362270663098
890 -0.038060037753428325 -0.01067519881552256 0.007842993275407882
650 -0.004043220314066603 -0.00018175608933123117 0.0013459789161582635
680 0.0099698247086128 0.018340699231331737 -0.018435917683930988
2086 0.002888286424784315 0.001066830034725122 0.0014387947048627458
72 0.0029015899864360314 0.0009134754917786999 0.015314774566273098
1933 -0.006088294263177635 -0.004345190087341564 0.0014692197221545895
1283 -0.0025675878054568463 0.005987362017931432 -0.012186487044119787
1457 -0.002750617682202677 0.002319328903061031 -0.005885011544934125
659 -0.011696339365202299 -0.011032855942569805 0.0131487666507653
174 0.0003304044747767649 0.002268589543758633 0.015033509380479797
1341 -0.0091608737677814 0.0006993548248288042 -0.0208276346492257
889 0.001471770095906496 -0.0013078441954963711 0.004316948764089578
2328 -0.006863491186060994 -0.012428141620198006 0.006901402480952004
344 0.011432085389793949 -0.0014123222651774134 0.028146423074188975
52 0.00879404226768659 0.002129432845636005 0.0024863545600908284
1266 -0.013339872618975923 0.004744529880883431 0.010359989575893602
280 0.0027170417588679024 0.0024425635354121634 -0.002834672957620369
1935 -0.002824381818174211 -0.022626293966421022 -0.005243996715143425
345 -0.0033345829212322936 0.001305255231780691 0.0057709738253849795
1254 0.009006878164797814 0.023334447910593432 0.010754277396415097
1362 -0.0007338927374818665 0.006260665593583699 -0.0016452946305337756
436 -0.00019794832055819846 0.0011833778637665134 0.005231958024014286
1513 -0.0033991533310035065 -0.0013070521102033113 0.001844247143259433
70 0.00138048532715872 -0.0031597512808237533 0.005470990012066516
1029 0.007318082908397676 0.00971745517702873 0.01568926156853345
1132 -0.007583664492127123 0.002604393359006225 -0.002405816732598351
597 0.00462376890969228 -1.739254048469607e-05 0.0018544649561651947
923 0.0024876709997111637 0.00725737174217373 0.002450497540425637
5 -0.009146644415279086 0.004904572854608521 -0.013262988188028534
1672 -0.002355138260016155 -0.00127566059013115 0.0046893505097499715
1492 -0.00015554366843403177 -0.005941404201538541 0.002284023390325945
1208 0.0019000322161890802 0.0025151250554675117 -0.008228628180565247
1224 -0.02560067956999535 -0.01661149658923222 -0.0029793870246485232
2088 0.02341228516379532 -0.016434566652965468 0.0019346017735006385
2008 -0.0015634668709783354 -0.0001099149141458444 -0.00394278696052298
437 0.02035064570567916 -0.0027702138347073346 0.0005888507258159322
4 0.003147737297601366 0.0032189506678200206 0.005679609817281939
14 -0.009773735442761033 0.021404065626047623 0.00024897683263400795
2173 -0.001207980272306354 0.0007056717496373804 0.0009070187034049296
2004 0.006805506420983666 -0.005627788976622917 0.0015188741089271964
1351 -0.004464806101566937 0.005956973126254297 -0.0029100846914846545
2326 0.006061714384961917 -0.000617793632401976 -0.002021419537635066
44 -0.005149190703478019 0.031158993271094233 -0.007426646881292068
1985 -0.00926636143930346 -0.01471859903297927 0.011552299349651853
1357 0.000395534315400433 0.0006418415716166101 0.0010901259546694626
713 0.01696574466363636 0.004656058142875092 0.01824938191073856
1014 0.012361640413984845 -0.006934237533230691 -0.0007694083361677867
1405 0.0008930569673251388 0.0024141420079171736 -0.0004951723461529582
2096 -0.00911532824266887 -0.008836508837916068 -0.007669922299274593
649 -0.005082667643062371 -0.0007160341739910503 0.005851588674245686
1361 0.006361362333734936 -0.018070762893098575 -0.01914395753278665
1236 0.003944204119320555 -0.00509032245232219 -0.002227800117286119
6 0.014624896586101412 0.004748627877155489 0.014914115700430839
1954 0.0006087227483267948 -0.00287530683241976 -0.005407193277433489
922 -0.0026802864113281344 0.006632051433494896 0.001471177250058234
1557 0.000147444000575485 0.01586003975246527 0.008567897309254294
1282 -0.0013736264239681076 0.0007370053266963717 -0.000464930456776004
1180 0.0007007552702135305 -0.003971650093331495 -0.004290538783115843
2095 -0.0025193728352673724 -0.003019241121919014 -0.0028416385312534926
810 0.016807873107210214 -0.0003439725900007053 0.0056794163561449595
59 0.005072228999978966 0.014611401569299014 0.0010139181645342655
47 -0.010447450409907254 -0.03636193626321461 0.02617848450180111
1287 -0.005391450717698867 -0.0029629271384074805 -0.002012009362466892
1841 0.0012709818285475446 0.015303136344156355 0.00457601380351257
58 0.0041315838097599 0.004390417584663062 2.3285612058516037e-05
1181 0.014712950095833618 0.009827876053431557 0.0008892115269129196
2364 -0.021751406847591043 -0.0013125213055700208 -0.018110030616287617
2174 -0.002525905911483389 0.0035414679264990432 -0.015840044125848666
1239 0.0011147764327738693 -0.003098850683970587 0.019768628651912985
1482 0.0026499556094258113 -0.01881801364794937 -0.014011097125766802
1458 0.00344709766030316 0.00894211790271582 0.0039259611647840505
45 -0.019396918819508488 0.005999585534197696 0.0031304307575489806
1284 0.0005035873175829704 -0.003127997400734863 0.005531548351588373
177 -0.012198995159852781 -0.02198333523690416 -0.0017397789086806925
2093 0.005093706271126983 -0.002613077919887952 0.017195257846282352
196 -0.004975723640950585 0.0019731155459038435 0.004142934225159905
660 -0.008845585668783582 0.006397125080888238 -8.430522119226593e-05
108 0.005250799880439268 -0.007071531227104035 0.015352806424948537
197 0.006964480549709911 0.00463743723245164 -0.003235279370982942
1809 -0.013802321842701519 -0.02087480729930164 -0.002834139077706855
2354 0.011521364674715533 -0.008911915897435374 -0.002559311391581235
1815 0.0016773701991020377 -0.01140373855355389 0.01364109389366372
1528 -0.0003841334131947339 0.0018892850799449065 -0.0012295270041167534
1523 0.003629293468565072 0.008217944360913353 -0.013192818926082348
343 -0.0032219769779226475 -0.004917880834973408 0.00719857065222737
1179 0.003528324482917024 -0.012327020649992339 0.005230990108594358
1524 -0.0036757209170130475 0.010657308364943156 0.012705901466398106
1197 -0.011193481067790827 -0.003394813438227352 0.007656597410454262
100 -0.004063038469715148 0.0009108438630009062 0.0009060947218381645
2050 0.0012812477495880185 -3.666270271003126e-05 0.0003470227996802144
2261 -0.011890323945635953 0.010685636226239269 0.007223884428583574
2378 -0.0024148138894857355 -0.021377174340541247 0.008360064323838694
2194 -0.002120956667206582 -0.010334918764612167 0.001525529386499089
1706 0.007050074911875447 0.0011858249752433178 -0.0005115062629122614
1378 0.0021143032101099504 0.00852553767425151 -0.0010394897515351947
2377 0.00021833196535627904 0.005765865771749288 -0.00026873561071729936
1379 -0.002375148996487844 0.003148358896105181 -0.0021024354940141488
1760 -0.016548956192752012 -0.005207040039198227 0.009031971113358761
1089 7.042507565974047e-05 -0.016492981167634157 0.0023262128251552005
1599 -0.01912663316048382 0.00039633427339573674 0.015526061213778126
56 -0.0004716882565447582 -0.0020411326616287377 0.013582664556733886
1481 -0.00030835560292144027 -0.010068722890701902 -0.008550368136652857
1313 0.0011221530942140984 0.008654423971983257 0.021956435699618287
2046 -0.003895299799170245 0.014994472117566996 -0.010494215258310876
672 0.0026208556767279008 -0.010629951605455209 0.016367011680504875
767 0.013475281415229938 0.005025044950487297 -0.0031061849027348445
32 -0.0023004386903516453 0.003180189438075918 -0.0023988331029163824
560 -0.005132874255527545 -0.03817929600348978 -0.0064236438054306524
1344 0.001186499688471156 -0.03343077998754178 -0.023106054906449354
673 0.005378782966840277 -0.0019492848457699206 -0.004409730837728159
1545 0.01533324349232584 0.00047570471610776393 0.016332899102130212
1543 -0.0014776379307638162 0.007757380030268561 0.0008541421956450775
1216 0.005425291670171283 -0.004178547840255521 -0.0008858591310080178
559 -0.0019610420469136527 -0.005098356486454453 -0.002208443761087167
1583 -0.0246855671888682 0.026612905819175914 0.0182761353515275
133 -0.001067098297019204 0.0034711774780329155 -0.0006236028798095749
305 0.004083424638448333 -0.0021625184683246026 0.0011217794486309011
2117 0.0031152518599131106 -0.01255552409664361 -0.034278086745045316
367 -0.0004243369378495044 0.006263541511535689 -0.005758580719723465
899 -0.0007038565916451733 -0.00027483443735885725 -0.014074921389835727
1972 -0.0029130107660441675 0.0013900697499780298 -0.006410725378634995
254 0.003934040387088124 -0.005477971113500945 0.001901679587332754
2118 0.03260184164910176 0.0111804516173594 0.021595573475088538
274 -0.003079126150314282 -0.0021557074096021766 0.0008406261308963864
1320 0.003865732091750645 -0.00488014952335791 0.00666146607492737
1666 0.0024686972610718375 -0.002679767443344079 0.0018247015746105052
998 0.004035162364799428 0.009977453193747305 -0.016576517058411934
505 -0.001854512953490186 -0.002653761708113169 -0.002429447906489773
1665 -0.0014077628357334897 0.006424812284176827 -0.00066547431686958
2080 -0.004884671539196166 -0.003373116647096646 -0.00045484085615877124
1329 -0.005654294700581052 0.0012539455175354984 0.004799715949391806
1095 -0.012009610514184008 -0.003424555422134394 0.024639760769256478
228 -0.0005773347010956202 -0.017056120040989997 -0.0058061453332127625
2344 0.005226095070669506 -0.00763507132588867 0.0004996402593627058
1421 -0.036211025643601416 -0.0191215057410002 -0.007042192803477359
2345 -0.000550395269281507 0.019689081668585386 -0.010388738016730742
31 -0.0031348662466632858 0.00433127702433309 -0.0006783137860976927
1664 0.02676954629243083 0.0023703509927243236 0.007307699158884632
1381 -0.0007279786762011531 0.0037026447390825245 -0.0005048867591055414
166 4.874560379733807e-05 0.00015927081750384924 -0.0006021978397117139
608 -9.439340038339983e-05 0.0063057943936690114 -0.001619562744094411
1094 0.000834404443838015 0.021229272454814947 -0.027868714607594616
1346 0.002182880185356369 0.0011982978764570574 -0.004959311296866659
609 -4.1200908113772736e-05 0.005507267812675294 8.919425394119339e-05
227 -0.0037713758949076757 0.00882432411454646 0.0065315231726871875
189 0.011710015051984112 -0.010805427179776415 0.004431186792248702
159 0.0012701538958288256 0.010082097689295362 -0.010655974990937081
1056 -0.004520013096189963 0.025446689177920853 0.009635134619767626
296 -0.01835466734670057 0.009304164351228798 0.005467019592532316
1960 -0.006279699004136554 -0.010527843642758281 -0.004504088560115102
2053 -0.0009413035678870477 0.0022639936293970607 -0.008435346765387252
1653 -0.023378836131075494 -0.0068713299476678 0.00010855001190641186
535 0.0045747342118442665 0.001470727003367633 -0.001567929183309563
1839 0.0038395839004169235 0.021364236326076442 0.005886661266199198
1660 0.0035264887260548377 -0.0006204890178126282 -0.0023595705158026854
270 0.001505958168876057 0.0016983508870719861 0.0010245267011134967
1697 -0.012572192565340362 -0.0029639418543949613 0.010526065324823496
2076 -0.00860883367791066 0.010765221233904781 -0.00878974024297997
62 -0.0028364863243594126 -0.003722848710251163 -0.013587974127679195
1319 0.0015357253043181676 0.009820718546261164 -0.016259202672125286
1077 0.005337967052416388 -0.006926010625533516 0.009047893124659425
253 0.0035045828081220164 -0.0024413100313957392 -0.00199032895180047
1333 0.00019585672575714303 0.0025520823640561826 0.0091758192811155
1622 0.004589458129638727 0.02846750570744613 -0.006367239892003462
1016 -0.011159408190099081 0.01622339130296415 0.0015274386022335528
1085 0.033572384977897295 0.0008902898751063572 -0.017848223256741794
523 6.924668531872632e-05 0.0032872114353810857 -0.0011566846747941145
1051 -9.096830033248773e-06 0.00600747494882682 -0.0037068865303850505
501 0.004553340416072214 -0.003805568362122988 -0.0014816647901324854
136 0.0011755507040797292 0.0019834474118227224 -0.00038284806410055676
1060 0.005446790499983995 -0.008470136975563062 -0.005040124764089224
1448 0.01852437431130108 -0.008568636982844567 0.0015629579854114274
1698 -0.007404334845473686 -0.023473539086320095 -0.007678118459332585
1662 0.001943839208568761 0.0011311364377930104 0.0007136158912395386
1707 0.0009861377753665774 0.001995712951938008 0.006940529120883029
1837 0.0005086857379876888 0.006166068664883758 -0.0020120530045229404
1076 -0.0005212626413514318 0.0031039150150853462 -0.001929512319888254
96 -0.004901044398275691 0.0030329055898232382 -0.004923284723127952
1584 0.005185440757470682 -0.008498355282974667 -0.012708384137449137
1743 0.014570569318120875 0.0036840013378566937 0.013702253392636284
1124 -0.005135907184334977 -0.008728756090861708 -0.01596675528009968
1696 -0.0013860320386133496 -0.002669637796755813 -0.004689452123457264
1440 -0.031646680464471985 0.005707350805371593 -0.022985429887964235
1335 0.00017066565510352657 0.006105353788234978 -0.005181782764569725
1150 0.004941938372571122 0.005981677722151976 -0.0030056961352643414
2272 0.0030437082406746785 -0.00038333115511264776 -0.003120904719951629
1623 -0.01918578600752242 0.010668035682782902 0.009441404985764578
63 -0.013628782595245892 -0.0007738258554075801 0.00018543638572772152
1613 -0.003242224945463298 0.008074391375165416 -0.001851428716148974
2346 -0.027606096264816936 -0.020787686596220677 -0.007790714519881978
1989 -0.0173808948414606 -0.015522198834964198 -0.0020543983663588745
277 0.0037782749337339143 -0.0055897505241706575 -0.002137379398102483
848 -0.0038815499598182186 0.021382798027741477 0.020758635624568002
933 -0.035227820286839726 -0.016357163349411747 -0.016848598706174306
1053 -0.008108555894006648 0.008724961320463673 0.00639159777503425
1796 0.004388566172958938 0.010261842524912877 0.006284522808087203
948 0.005400440605940794 -0.006248131917524797 -0.0009747151759823291
537 -0.00014664354318912005 -0.0031407925071225314 0.005450059024604269
1973 -0.001967555405039674 -0.01982560553278289 0.005714071521841403
800 -0.0015029470719033333 -0.015395662957654613 -0.004544874003568143
927 -0.00020616171304642058 -0.003453820456388516 -0.012489742033120258
1114 -0.0062040690364584886 -0.00855346641355786 0.0002512708515290618
898 0.0005434397077569637 0.011026215094597249 -0.0004722340982547917
766 -0.005073292886942219 0.0021603730412359276 -0.002199293001009627
2290 -0.004335709457580047 0.0006033075302611041 0.003698499174016386
1062 -0.002192259647809799 0.018195400492047046 -0.010807133775659557
1795 -0.0010762071991461178 0.0029852269467223577 -0.00153088247222288
1988 -0.015994144969849373 -0.003592493231809945 0.006756628503752181
1974 -0.007036184323183461 -0.010252247767017754 -0.001236480437800862
840 -0.002881131968470087 0.01992812453832804 0.03754772930312887
98 -0.024483466302037928 -0.005599109364452169 0.011336134121293492
867 -0.004062862665580345 0.000144398624547774 0.002819154241699954
1123 -0.003963116566123818 0.003374428907460191 -0.0009917794378331672
1705 0.0028889395548368562 0.0014258212930290354 0.0013633406360144778
561 -2.596240944512139e-05 -0.017498180564451606 0.0035294304392055795
1093 0.0023347494459058146 -0.0058753609573110625 -0.0029031901871823733
1382 0.005929944771192527 0.012476540832320202 -0.0025352528866233615
269 -0.0005334698540515637 0.0004352053168565148 0.006366250786224264
1987 -0.012536612977832928 -0.009471973600524819 -0.0002958536488339306
1061 -0.004510035433704283 -0.026082213434079158 -0.01839480241056669
500 0.0037471619917862384 0.00049997792193779 0.0005045136417523501
2391 0.007173356734858466 0.0031053350767489573 0.00030379343843261276
1342 -0.0033255812573058413 -0.004040229994132741 -0.004546022392066333
1661 -0.010450318217879262 0.017421809072677236 0.003544216451653433
1544 -0.004648448515661142 0.015375172994522734 -0.0019637193158786497
622 0.004617263131193013 -0.004541774152384715 -0.0008470002880161448
168 0.019876841412905688 -0.0034559048191038578 -0.01039046756816252
362 -0.008460342947905899 -0.01927278865230237 -0.014697279508635907
1270 -0.004901368909117195 -0.0032940056111577356 0.0005230339457275304
1017 0.01704406742723278 0.004832439613004057 0.013806807731601197
623 -0.018134602817390846 -0.008096361268503698 0.02576393097995385
95 0.006694886558375099 0.006607448967266259 0.006672681716915164
97 5.653783334663183e-05 0.000490242105728026 0.00038964137248677616
1054 0.003566099181166877 0.002126925232950699 -0.003353504051003253
1439 0.0015875123620074484 0.0038161200177176673 0.010341379516921462
1614 0.005855985099622218 0.011949271970588654 -0.0032776946574996986
40 0.008979709369472472 0.0033417563757320913 0.002318865841536437
42 0.010743420957333119 0.010150655008427911 0.001440372606652422
1693 -0.002161903255696742 -0.002802481786358326 -0.003254050229572564
1797 -0.008067429641796154 -0.00508539894536911 -0.009977948367345946
278 -0.014119170132073183 0.0028926018502709113 -0.002847544779170944
2081 -0.004858752043602208 0.022297149285220617 0.0145867724490206
847 -0.0012462202627656178 0.0031169622623204813 0.001151916488719542
536 0.0030449495994855367 0.0011396115056149655 -0.002427280176440258
900 -0.015847380472439387 0.0002841618040372153 -0.006397906855707031
1753 0.0001553240216851718 -0.0032981638717380865 0.0033971818033652246
2390 0.0029989162864674027 -0.008237469106933836 0.001416621470468827
361 -0.006112782230508219 0.007424399845514678 -0.0015547197294389146
1084 0.002843106698743693 0.00345163402880813 0.002577346042350084
771 0.0037375209401822383 -0.008422093777925615 -0.014678691708787276
926 0.003891336992380523 0.003287713585459237 0.0018976802411735463
41 0.0027612099826607077 0.0024960812753555195 0.005839807919278178
275 -0.011281183725111417 -0.009266031421134389 0.018903571205617406
1663 0.003495156890765882 -0.00551430444522313 -0.002404889379896377
2055 0.003823265805386199 0.038359045251494445 0.0031413418012036735
1385 -0.005677211293846954 -0.005319047735735132 -0.025353397888193154
193 -0.002274092764607724 0.0033059045796473654 0.004631494695662135
1695 0.007560219845332474 0.0001288227465497445 0.0017334477174829935
865 -0.00832061986903832 0.003398469229807272 -0.000494155852172277
2116 -0.0046444913141177775 -0.0017139622971196332 0.0009360602415124836
769 -0.001706196883767643 -0.005045858486092729 -0.008925656441034603
624 -0.005342795336646429 0.005174492439327472 0.006080930078151875
2316 -0.0019484387949107495 -0.0022360446232223756 0.00286984560030878
1115 0.0010101069383110848 -0.00928723887268467 -0.008044161694023728
1540 -0.006066234182520397 -0.0009518837087167124 0.005116471299164779
2325 -0.007051944502177552 -0.004512713443807558 0.002802783635810231
489 0.00808348678166106 -0.004149963543874592 -0.004183461992654882
1125 -0.008653145740651938 -0.005533252960403885 -0.00886905979259791
2054 -0.0007909960768596721 0.021505996676464634 -0.005125453529803003
1334 -0.0030996369340331423 0.0054477663912872645 0.00616365286113785
1217 0.00996253043828465 -0.004463027094924955 0.008721104447303778
138 0.0003412958936953999 0.010121055441873843 -0.0018962362244743932
1271 -0.0034414673707142815 -0.001791178409184846 0.009420081017981707
187 0.007777259764319272 -0.004333975181945511 -0.0027658576665735633
24 -0.0006595673190705642 0.004563246241653462 0.009159168530971698
1755 0.008625463645810204 -0.0035315952186776504 -0.016380245935405928
2257 0.003524153250733031 -0.0020799419866643918 0.0012219448704263204
488 -0.015137884456249081 0.010453043034028746 0.006733652101016738
1741 -0.0011441935269292651 0.0010162411797217067 -0.004200075498179869
735 -0.009741646940839354 -0.005243707909961933 -0.008497922195157055
734 -0.005890224582427512 -0.0191049794434859 -0.014849214241289753
1961 -0.012152377567137216 0.010978221860071606 0.016961292949251763
226 0.0065209531849744215 -0.002932735497354256 0.004415744481973454
1447 0.0029594227041604636 -0.0040716012206593166 0.0033250897412036547
137 -0.012878245309801807 0.033139315757648925 -0.011023322857793621
1347 -0.012893683812106968 0.015221945962575447 -0.0008499008041175788
158 0.0017719635384328852 -0.0020557972658829375 0.004153255979432124
195 -0.011156744851420266 -0.003487536853064035 0.013604768868175096
1015 0.0029219769725888868 0.0034586995499996114 2.2899635086432085e-05
1422 0.0022771413067151835 -0.0062686608175701606 0.008542867126617006
21 -0.01567192853959106 0.004032899644113123 0.0006105928215402271
799 0.0038516761535009373 -0.0033750461049514863 0.0015567380554093308
1541 -0.007590535722909299 -0.006581253506074222 0.0005809702768010761
1345 0.001709638740673671 0.0040890175223018115 0.0006719446759114188
2074 0.0008750071185296447 -0.004618891326976895 -0.00010126727692521773
255 -0.006101254725016439 -0.0050741811784020575 -0.00012294977712573206
1383 -0.002819106530539808 -2.7935460570967774e-05 -0.012091425894633209
368 -0.018973866697318927 0.016682319301350453 -0.02019479254560831
188 0.0050165546628882585 -0.00020850538747371853 -0.007169700907078343
135 0.0021579914708813063 -0.0012058601894453706 -0.004097026561688596
1694 -0.002330392090687461 0.0010669890721858556 -0.0039718662857685045
1116 0.0006390319028341992 -0.007862589918024902 -0.005716288823787293
2389 -0.0023694478372462656 8.491297680727545e-05 -0.0008571741398350677
642 -0.020066341986183518 2.3775259159539415e-05 0.00748319423492706
997 -0.0010390136148900235 0.0014227840649481743 0.0010661514322571684
2315 0.004965616021803143 0.004885355907486781 0.0015980320714038922
524 -0.024076501370188602 -0.023326912514333553 0.011327237631761574
1384 -0.0010476965780615464 0.0009051038185157682 0.0011446263645936879
768 0.015992192527872744 -0.009179644703452844 0.01988967057952954
1394 0.006453780673988771 -0.0012278158698307464 0.007930049930091658
607 0.00455195227085016 0.001680077124455447 -0.0028944808136956504
2314 0.0006777496836125634 0.004841566721028257 0.002462572668145962
674 0.010674624369257299 -0.0009533354166503415 -0.012395375059632523
297 -0.007012435108070878 -0.027375008172894413 -0.004602017811439919
866 -0.020802162235986296 -0.006217277346966301 0.0016518824950660942
499 0.002050222426098681 -0.0016314102117388036 -0.00159663730116968
1652 0.009960941354452954 0.01229767357724636 0.01639595610103101
1386 0.00129004039641179 0.006062228467498835 0.015969755396368128
1438 0.0013896109276083034 -0.0044299849668544425 -0.0036858835494175428
1246 0.003906748238596596 0.0021968639167083124 0.0012300976593447644
487 0.0036088922322581457 -0.0007296996730192011 -0.0012057719687947443
1 -0.0013316474341772142 0.0036113037710347046 -0.0016162206532342508
157 0.001010313673672709 0.008815854790204115 -0.002669791890078724
1152 0.005210840331166112 0.012229540867592543 0.012798748782636088
295 -0.0010535555500612356 -0.003700522584936024 -0.0009168406728361106
849 -0.01269424084288801 -0.011541398164955126 -0.0009609234792311786
1542 0.010082330805419613 -0.0017419867642957509 0.02481615531756251
1612 -9.217535077824355e-05 0.009515815205162061 -0.005422774865247307
1582 -0.00514709713683849 0.0031376249736407703 0.0025647217878366395
134 -0.008521527351579128 0.0055242893260798115 0.002504167495739312
150 0.007547003876342635 0.012909444505936576 -0.0170664123366474
925 0.0015456351543198107 -0.0002759912406027127 -0.0001833085949062785
1962 -0.01248283924024789 0.010427487114042979 0.016965118576697056
506 -0.022893391448433834 0.001067029728798944 0.011433884552139506
1196 0.016290874998991393 0.009629624513334155 0.007054172242733422
115 0.003029770950059029 -0.005909642075885382 0.0008400464963078973
675 0.010454822007397531 -0.005316617240681013 -0.003078168260638829
268 -0.00033526681441480125 0.0024546427430217417 0.004368629827880451
1754 0.004967994914353396 -0.017743805443142215 0.00019068982442996144
2274 0.01859594340017094 4.988786665260526e-05 0.023973733914594657
1343 -0.006595002750896836 -0.0029759027560750328 0.005654482819743094
1420 0.00023029113716365257 -0.0010628357050197251 -0.0036594794087212393
999 0.01104012626586065 -0.010133609245839278 -0.016559604001707154
2 -0.0003904574036612318 0.008886364386691409 -0.012972303754709338
1437 0.007952228308836346 0.013701469948150892 0.025471698691098926
1008 -0.0025118664972741 -0.006913596953968152 -0.00021917331635563027
1086 -0.0042842111450232135 0.0010262927645941148 0.013982023006007123
2082 -0.004437130769270382 -0.01663236023149049 -0.006020404932250222
1151 0.009434697516805406 0.014488414362699984 -0.006542023433036063
507 0.009373367555538662 0.01994224164305151 -0.0040230851131035535
770 0.006181862785410445 -0.014158828141339914 -0.005727970434297578
739 0.0001146869582461989 0.0025607237069621503 -0.0025443503351313145
304 0.0010282184737312912 0.003863244781983706 -0.0019158238057391463
276 -0.011305222365803232 0.01143382746092622 -0.013196866054241595
3 0.007603220992993765 0.004370470781953592 -0.014274098497640242
733 -0.0031263656979509864 0.00021868779628169687 -0.0009704673401072922
801 -0.002420704344664539 -0.003652827374440812 0.019061480448153516
99 0.0106673978202149 0.0027674132977257284 0.005303714797170356
167 -0.0014923598784111554 0.01023658896347225 -0.005947033622649564
2291 -0.0039049966602652743 -7.017550947791173e-05 0.013368112284707205
1075 0.0017197049941459878 0.001959792002984525 0.0009753961016861705
1621 -0.005228377557997668 -0.0003294304793385683 -0.001988081393240766
1651 0.0049847211830064105 0.003334923918246186 -0.00450527606633681
671 -0.003868210734542824 -0.007979824068576362 0.004577886761623973
1247 0.007853567362142218 -0.012850764923614845 -0.009225204542825988
1006 -0.002226061842182573 0.0002769687546939866 -0.0041665743688925165
2273 -0.01731993818510318 0.017664205539985066 0.00032187169687181134
2292 -0.018296050407448854 0.0016131665249864244 0.02435150677087408
94 -0.002216134679664137 0.00023704061480071898 -0.0006489443232203417
1055 0.0030716213583763985 -0.014147219724712006 0.011489613014229174
61 -0.0034664320863095448 2.453605211838654e-05 0.0031695433519033935
2258 0.01719598596502553 0.00467875629442405 -0.008815854526389904
1272 0.0009430729555361717 0.002047020403278283 -0.004603498254057898
1248 -0.0017224458134456292 -0.015887984595973972 -0.004109706030617523
1318 -0.010469621751402891 0.0008611521626018765 0.0008971321064907355
993 0.0012953807248530392 0.01952025344639253 -0.007288424044207672
54 0.01886182619347122 -2.1410797876562918e-05 0.0056104904194407175
1838 0.019787995089443875 -0.004259504428497819 -0.01031847262936546
148 0.005369993269014778 0.0011109145187111254 -0.004621754683459873
1742 -0.00589924192817627 -0.0234496613860161 -0.006148043384700301
2259 -0.0026405322339321797 0.0007829319029476462 0.027496549321532074
1108 0.006180317938490882 -0.0030742717078271354 0.004763730976449768
1110 0.00552684706598982 0.003749672685465402 0.013861796545547775
1328 -0.001959025645742041 -0.0005036270142164428 -0.00353340841788073
2319 -0.008447595843907509 -0.010707837638514415 -0.008041127228370816
2385 0.019724255084621906 0.01719649255970136 0.011844312938923558
303 -0.011963767361013969 0.005991907364935862 0.01397111009037214
363 -0.004145931789800246 -0.009991186324299718 -0.012478685637493553
581 0.004196361097983423 0.0021969086385360244 -0.0012825022778444573
2025 -0.02166586860771616 -0.02419101446457681 -0.006515370557611157
1668 -0.005695850763250819 0.002090704185659911 0.015282226342132674
1052 0.005895058514950079 -0.005190963330248961 -0.0020314522910242034

Bonds

1 1 2263 2264
2 1 2263 2265
3 1 2011 2012
4 1 2011 2013
5 1 1066 1067
6 1 1066 1068
7 1 1111 1112
8 1 1111 1113
9 1 1957 1958
10 1 1957 1959
11 1 763 764
12 1 763 765
13 1 1909 1910
14 1 1909 1911
15 1 1636 1637
16 1 1636 1638
17 1 1585 1586
18 1 1585 1587
19 1 1459 1460
20 1 1459 1461
21 1 1363 1364
22 1 1363 1365
23 1 232 233
24 1 232 234
25 1 2287 2288
26 1 2287 2289
27 1 526 527
28 1 526 528
29 1 1939 1940
30 1 1939 1941
31 1 2254 2255
32 1 2254 2256
33 1 142 143
34 1 142 144
35 1 37 38
36 1 37 39
37 1 1702 1703
38 1 1702 1704
39 1 1366 1367
40 1 1366 1368
41 1 589 590
42 1 589 591
43 1 391 392
44 1 391 393
45 1 421 422
46 1 421 423
47 1 577 578
48 1 577 579
49 1 553 554
50 1 553 555
51 1 1975 1976
52 1 1975 1977
53 1 2170 2171
54 1 2170 2172
55 1 1678 1679
56 1 1678 1680
57 1 820 821
58 1 820 822
59 1 1744 1745
60 1 1744 1746
61 1 1603 1604
62 1 1603 1605
63 1 1153 1154
64 1 1153 1155
65 1 1873 1874
66 1 1873 1875
67 1 1930 1931
68 1 1930 1932
69 1 2140 2141
70 1 2140 2142
71 1 235 236
72 1 235 237
73 1 1978 1979
74 1 1978 1980
75 1 79 80
76 1 79 81
77 1 604 605
78 1 604 606
79 1 1891 1892
80 1 1891 1893
81 1 904 905
82 1 904 906
83 1 2320 2321
84 1 2320 2322
85 1 814 815
86 1 814 816
87 1 10 11
88 1 10 12
89 1 2014 2015
90 1 2014 2016
91 1 1831 1832
92 1 1831 1833
93 1 1171 1172
94 1 1171 1173
95 1 913 914
96 1 913 915
97 1 2236 2237
98 1 2236 2238
99 1 1279 1280
100 1 1279 1281
101 1 1588 1589
102 1 1588 1590
103 1 1042 1043
104 1 1042 1044
105 1 1849 1850
106 1 1849 1851
107 1 2218 2219
108 1 2218 2220
109 1 1765 1766
110 1 1765 1767
111 1 1801 1802
112 1 1801 1803
113 1 592 593
114 1 592 594
115 1 409 410
116 1 409 411
117 1 448 449
118 1 448 450
119 1 1579 1580
120 1 1579 1581
121 1 1894 1895
122 1 1894 1896
123 1 1099 1100
124 1 1099 1101
125 1 145 146
126 1 145 147
127 1 397 398
128 1 397 399
129 1 1633 1634
130 1 1633 1635
131 1 715 716
132 1 715 717
133 1 1834 1835
134 1 1834 1836
135 1 2035 2036
136 1 2035 2037
137 1 2017 2018
138 1 2017 2019
139 1 82 83
140 1 82 84
141 1 724 725
142 1 724 726
143 1 1390 1391
144 1 1390 1392
145 1 2176 2177
146 1 2176 2178
147 1 823 824
148 1 823 825
149 1 979 980
150 1 979 981
151 1 538 539
152 1 538 540
153 1 2248 2249
154 1 2248 2250
155 1 247 248
156 1 247 249
157 1 1717 1718
158 1 1717 1719
159 1 601 602
160 1 601 603
161 1 2005 2006
162 1 2005 2007
163 1 742 743
164 1 742 744
165 1 637 638
166 1 637 639
167 1 2392 2393
168 1 2392 2394
169 1 1900 1901
170 1 1900 1902
171 1 781 782
172 1 781 783
173 1 583 584
174 1 583 585
175 1 382 383
176 1 382 384
177 1 2098 2099
178 1 2098 2100
179 1 2197 2198
180 1 2197 2199
181 1 1258 1259
182 1 1258 1260
183 1 1963 1964
184 1 1963 1965
185 1 1684 1685
186 1 1684 1686
187 1 1204 1205
188 1 1204 1206
189 1 1606 1607
190 1 1606 1608
191 1 352 353
192 1 352 354
193 1 217 218
194 1 217 219
195 1 1549 1550
196 1 1549 1551
197 1 937 938
198 1 937 939
199 1 1174 1175
200 1 1174 1176
201 1 853 854
202 1 853 855
203 1 709 710
204 1 709 711
205 1 355 356
206 1 355 357
207 1 634 635
208 1 634 636
209 1 2167 2168
210 1 2167 2169
211 1 463 464
212 1 463 465
213 1 1423 1424
214 1 1423 1425
215 1 2107 2108
216 1 2107 2109
217 1 1990 1991
218 1 1990 1992
219 1 880 881
220 1 880 882
221 1 1756 1757
222 1 1756 1758
223 1 1168 1169
224 1 1168 1170
225 1 2083 2084
226 1 2083 2085
227 1 1483 1484
228 1 1483 1485
229 1 1654 1655
230 1 1654 1656
231 1 778 779
232 1 778 780
233 1 1750 1751
234 1 1750 1752
235 1 1507 1508
236 1 1507 1509
237 1 1906 1907
238 1 1906 1908
239 1 406 407
240 1 406 408
241 1 67 68
242 1 67 69
243 1 2110 2111
244 1 2110 2112
245 1 139 140
246 1 139 141
247 1 1261 1262
248 1 1261 1263
249 1 349 350
250 1 349 351
251 1 652 653
252 1 652 654
253 1 334 335
254 1 334 336
255 1 1120 1121
256 1 1120 1122
257 1 625 626
258 1 625 627
259 1 949 950
260 1 949 951
261 1 2047 2048
262 1 2047 2049
263 1 1726 1727
264 1 1726 1728
265 1 1792 1793
266 1 1792 1794
267 1 325 326
268 1 325 327
269 1 2347 2348
270 1 2347 2349
271 1 2269 2270
272 1 2269 2271
273 1 667 668
274 1 667 669
275 1 1798 1799
276 1 1798 1800
277 1 1924 1925
278 1 1924 1926
279 1 565 566
280 1 565 567
281 1 424 425
282 1 424 426
283 1 2134 2135
284 1 2134 2136
285 1 427 428
286 1 427 429
287 1 850 851
288 1 850 852
289 1 706 707
290 1 706 708
291 1 433 434
292 1 433 435
293 1 2284 2285
294 1 2284 2286
295 1 1210 1211
296 1 1210 1212
297 1 1771 1772
298 1 1771 1773
299 1 829 830
300 1 829 831
301 1 412 413
302 1 412 414
303 1 703 704
304 1 703 705
305 1 1348 1349
306 1 1348 1350
307 1 340 341
308 1 340 342
309 1 619 620
310 1 619 621
311 1 298 299
312 1 298 300
313 1 832 833
314 1 832 834
315 1 373 374
316 1 373 375
317 1 244 245
318 1 244 246
319 1 1627 1628
320 1 1627 1629
321 1 319 320
322 1 319 321
323 1 25 26
324 1 25 27
325 1 415 416
326 1 415 417
327 1 1564 1565
328 1 1564 1566
329 1 1951 1952
330 1 1951 1953
331 1 745 746
332 1 745 747
333 1 1471 1472
334 1 1471 1473
335 1 721 722
336 1 721 723
337 1 1525 1526
338 1 1525 1527
339 1 64 65
340 1 64 66
341 1 1063 1064
342 1 1063 1065
343 1 1783 1784
344 1 1783 1785
345 1 481 482
346 1 481 483
347 1 34 35
348 1 34 36
349 1 802 803
350 1 802 804
351 1 442 443
352 1 442 444
353 1 775 776
354 1 775 777
355 1 958 959
356 1 958 960
357 1 613 614
358 1 613 615
359 1 127 128
360 1 127 129
361 1 1561 1562
362 1 1561 1563
363 1 1897 1898
364 1 1897 1899
365 1 28 29
366 1 28 30
367 1 199 200
368 1 199 201
369 1 1852 1853
370 1 1852 1854
371 1 169 170
372 1 169 171
373 1 1993 1994
374 1 1993 1995
375 1 1648 1649
376 1 1648 1650
377 1 88 89
378 1 88 90
379 1 1981 1982
380 1 1981 1983
381 1 2329 2330
382 1 2329 2331
383 1 484 485
384 1 484 486
385 1 1147 1148
386 1 1147 1149
387 1 265 266
388 1 265 267
389 1 541 542
390 1 541 543
391 1 856 857
392 1 856 858
393 1 1885 1886
394 1 1885 1887
395 1 358 359
396 1 358 360
397 1 1003 1004
398 1 1003 1005
399 1 316 317
400 1 316 318
401 1 757 758
402 1 757 759
403 1 1057 1058
404 1 1057 1059
405 1 2215 2216
406 1 2215 2217
407 1 985 986
408 1 985 987
409 1 214 215
410 1 214 216
411 1 1399 1400
412 1 1399 1401
413 1 118 119
414 1 118 120
415 1 1294 1295
416 1 1294 1296
417 1 1045 1046
418 1 1045 1047
419 1 790 791
420 1 790 792
421 1 1273 1274
422 1 1273 1275
423 1 940 941
424 1 940 942
425 1 916 917
426 1 916 918
427 1 1690 1691
428 1 1690 1692
429 1 184 185
430 1 184 186
431 1 85 86
432 1 85 87
433 1 748 749
434 1 748 750
435 1 727 728
436 1 727 729
437 1 1729 1730
438 1 1729 1731
439 1 223 224
440 1 223 225
441 1 1105 1106
442 1 1105 1107
443 1 1036 1037
444 1 1036 1038
445 1 844 845
446 1 844 846
447 1 1942 1943
448 1 1942 1944
449 1 1639 1640
450 1 1639 1641
451 1 520 521
452 1 520 522
453 1 1531 1532
454 1 1531 1533
455 1 1069 1070
456 1 1069 1071
457 1 337 338
458 1 337 339
459 1 1558 1559
460 1 1558 1560
461 1 2041 2042
462 1 2041 2043
463 1 1780 1781
464 1 1780 1782
465 1 544 545
466 1 544 546
467 1 1936 1937
468 1 1936 1938
469 1 826 827
470 1 826 828
471 1 400 401
472 1 400 402
473 1 907 908
474 1 907 909
475 1 2308 2309
476 1 2308 2310
477 1 1009 1010
478 1 1009 1011
479 1 1534 1535
480 1 1534 1536
481 1 1828 1829
482 1 1828 1830
483 1 1429 1430
484 1 1429 1431
485 1 772 773
486 1 772 774
487 1 151 152
488 1 151 153
489 1 1552 1553
490 1 1552 1554
491 1 2341 2342
492 1 2341 2343
493 1 2044 2045
494 1 2044 2046
495 1 661 662
496 1 661 663
497 1 163 164
498 1 163 165
499 1 1537 1538
500 1 1537 1539
501 1 460 461
502 1 460 462
503 1 517 518
504 1 517 519
505 1 574 575
506 1 574 576
507 1 1135 1136
508 1 1135 1137
509 1 1231 1232
510 1 1231 1233
511 1 2020 2021
512 1 2020 2022
513 1 289 290
514 1 289 291
515 1 1630 1631
516 1 1630 1632
517 1 250 251
518 1 250 252
519 1 502 503
520 1 502 504
521 1 2128 2129
522 1 2128 2130
523 1 1324 1325
524 1 1324 1326
525 1 2101 2102
526 1 2101 2103
527 1 805 806
528 1 805 807
529 1 2122 2123
530 1 2122 2124
531 1 970 971
532 1 970 972
533 1 1300 1301
534 1 1300 1302
535 1 877 878
536 1 877 879
537 1 943 944
538 1 943 945
539 1 670 671
540 1 670 672
541 1 451 452
542 1 451 453
543 1 691 692
544 1 691 693
545 1 2056 2057
546 1 2056 2058
547 1 1816 1817
548 1 1816 1818
549 1 1033 1034
550 1 1033 1035
551 1 1162 1163
552 1 1162 1164
553 1 1291 1292
554 1 1291 1293
555 1 2119 2120
556 1 2119 2121
557 1 1819 1820
558 1 1819 1821
559 1 1309 1310
560 1 1309 1311
561 1 49 50
562 1 49 51
563 1 1183 1184
564 1 1183 1185
565 1 2209 2210
566 1 2209 2211
567 1 2059 2060
568 1 2059 2061
569 1 388 389
570 1 388 390
571 1 1030 1031
572 1 1030 1032
573 1 1396 1397
574 1 1396 1398
575 1 883 884
576 1 883 885
577 1 928 929
578 1 928 930
579 1 871 872
580 1 871 873
581 1 550 551
582 1 550 552
583 1 796 797
584 1 796 798
585 1 556 557
586 1 556 558
587 1 1129 1130
588 1 1129 1131
589 1 1597 1598
590 1 1597 1599
591 1 2245 2246
592 1 2245 2247
593 1 1774 1775
594 1 1774 1776
595 1 562 563
596 1 562 564
597 1 457 458
598 1 457 459
599 1 2152 2153
600 1 2152 2154
601 1 1594 1595
602 1 1594 1596
603 1 238 239
604 1 238 240
605 1 1336 1337
606 1 1336 1338
607 1 1822 1823
608 1 1822 1824
609 1 1156 1157
610 1 1156 1158
611 1 2332 2333
612 1 2332 2334
613 1 628 629
614 1 628 630
615 1 2125 2126
616 1 2125 2127
617 1 1642 1643
618 1 1642 1644
619 1 475 476
620 1 475 477
621 1 1240 1241
622 1 1240 1242
623 1 2185 2186
624 1 2185 2187
625 1 1969 1970
626 1 1969 1971
627 1 76 77
628 1 76 78
629 1 586 587
630 1 586 588
631 1 1186 1187
632 1 1186 1188
633 1 2077 2078
634 1 2077 2079
635 1 2113 2114
636 1 2113 2115
637 1 2212 2213
638 1 2212 2214
639 1 514 515
640 1 514 516
641 1 241 242
642 1 241 243
643 1 1468 1469
644 1 1468 1470
645 1 1675 1676
646 1 1675 1677
647 1 292 293
648 1 292 294
649 1 2191 2192
650 1 2191 2193
651 1 283 284
652 1 283 285
653 1 859 860
654 1 859 861
655 1 2302 2303
656 1 2302 2304
657 1 154 155
658 1 154 156
659 1 364 365
660 1 364 366
661 1 2305 2306
662 1 2305 2307
663 1 2281 2282
664 1 2281 2283
665 1 1225 1226
666 1 1225 1227
667 1 2089 2090
668 1 2089 2091
669 1 685 686
670 1 685 687
671 1 946 947
672 1 946 948
673 1 961 962
674 1 961 963
675 1 955 956
676 1 955 957
677 1 508 509
678 1 508 510
679 1 2233 2234
680 1 2233 2235
681 1 271 272
682 1 271 273
683 1 841 842
684 1 841 843
685 1 7 8
686 1 7 9
687 1 793 794
688 1 793 795
689 1 1888 1889
690 1 1888 1890
691 1 1915 1916
692 1 1915 1917
693 1 1927 1928
694 1 1927 1929
695 1 1624 1625
696 1 1624 1626
697 1 394 395
698 1 394 396
699 1 1024 1025
700 1 1024 1026
701 1 2068 2069
702 1 2068 2070
703 1 1948 1949
704 1 1948 1950
705 1 1219 1220
706 1 1219 1221
707 1 1297 1298
708 1 1297 1299
709 1 982 983
710 1 982 984
711 1 1435 1436
712 1 1435 1437
713 1 346 347
714 1 346 348
715 1 1657 1658
716 1 1657 1659
717 1 2221 2222
718 1 2221 2223
719 1 1966 1967
720 1 1966 1968
721 1 1288 1289
722 1 1288 1290
723 1 130 131
724 1 130 132
725 1 313 314
726 1 313 315
727 1 1879 1880
728 1 1879 1881
729 1 1138 1139
730 1 1138 1140
731 1 919 920
732 1 919 921
733 1 1711 1712
734 1 1711 1713
735 1 2062 2063
736 1 2062 2064
737 1 1567 1568
738 1 1567 1569
739 1 1306 1307
740 1 1306 1308
741 1 1393 1394
742 1 1393 1395
743 1 2206 2207
744 1 2206 2208
745 1 1453 1454
746 1 1453 1455
747 1 1198 1199
748 1 1198 1200
749 1 256 257
750 1 256 258
751 1 2230 2231
752 1 2230 2232
753 1 2224 2225
754 1 2224 2226
755 1 1687 1688
756 1 1687 1689
757 1 109 110
758 1 109 111
759 1 466 467
760 1 466 468
761 1 2146 2147
762 1 2146 2148
763 1 1732 1733
764 1 1732 1734
765 1 1369 1370
766 1 1369 1371
767 1 478 479
768 1 478 480
769 1 1354 1355
770 1 1354 1356
771 1 1762 1763
772 1 1762 1764
773 1 610 611
774 1 610 612
775 1 1414 1415
776 1 1414 1416
777 1 838 839
778 1 838 840
779 1 1855 1856
780 1 1855 1857
781 1 892 893
782 1 892 894
783 1 1768 1769
784 1 1768 1770
785 1 1141 1142
786 1 1141 1143
787 1 2179 2180
788 1 2179 2181
789 1 676 677
790 1 676 678
791 1 571 572
792 1 571 573
793 1 430 431
794 1 430 432
795 1 112 113
796 1 112 114
797 1 931 932
798 1 931 933
799 1 1408 1409
800 1 1408 1410
801 1 1477 1478
802 1 1477 1479
803 1 1846 1847
804 1 1846 1848
805 1 2104 2105
806 1 2104 2106
807 1 862 863
808 1 862 864
809 1 1882 1883
810 1 1882 1884
811 1 1738 1739
812 1 1738 1740
813 1 1444 1445
814 1 1444 1446
815 1 172 173
816 1 172 174
817 1 2398 2399
818 1 2398 2400
819 1 1000 1001
820 1 1000 1002
821 1 835 836
822 1 835 837
823 1 568 569
824 1 568 570
825 1 718 719
826 1 718 720
827 1 1912 1913
828 1 1912 1914
829 1 286 287
830 1 286 288
831 1 598 599
832 1 598 600
833 1 2386 2387
834 1 2386 2388
835 1 1609 1610
836 1 1609 1611
837 1 2266 2267
838 1 2266 2268
839 1 2149 2150
840 1 2149 2151
841 1 1708 1709
842 1 1708 1710
843 1 1867 1868
844 1 1867 1869
845 1 1441 1442
846 1 1441 1443
847 1 1081 1082
848 1 1081 1083
849 1 1681 1682
850 1 1681 1683
851 1 895 896
852 1 895 897
853 1 2026 2027
854 1 2026 2028
855 1 787 788
856 1 787 789
857 1 2356 2357
858 1 2356 2358
859 1 529 530
860 1 529 531
861 1 2338 2339
862 1 2338 2340
863 1 1918 1919
864 1 1918 1920
865 1 784 785
866 1 784 786
867 1 418 419
868 1 418 420
869 1 1576 1577
870 1 1576 1578
871 1 160 161
872 1 160 162
873 1 811 812
874 1 811 813
875 1 181 182
876 1 181 183
877 1 2299 2300
878 1 2299 2301
879 1 2143 2144
880 1 2143 2145
881 1 1321 1322
882 1 1321 1323
883 1 1126 1127
884 1 1126 1128
885 1 493 494
886 1 493 495
887 1 1192 1193
888 1 1192 1194
889 1 967 968
890 1 967 969
891 1 994 995
892 1 994 996
893 1 385 386
894 1 385 387
895 1 1945 1946
896 1 1945 1947
897 1 682 683
898 1 682 684
899 1 547 548
900 1 547 549
901 1 973 974
902 1 973 975
903 1 1243 1244
904 1 1243 1245
905 1 736 737
906 1 736 738
907 1 1870 1871
908 1 1870 1872
909 1 697 698
910 1 697 699
911 1 1315 1316
912 1 1315 1317
913 1 439 440
914 1 439 441
915 1 886 887
916 1 886 888
917 1 205 206
918 1 205 207
919 1 751 752
920 1 751 753
921 1 1018 1019
922 1 1018 1020
923 1 1426 1427
924 1 1426 1428
925 1 1402 1403
926 1 1402 1404
927 1 934 935
928 1 934 936
929 1 1474 1475
930 1 1474 1476
931 1 496 497
932 1 496 498
933 1 976 977
934 1 976 978
935 1 1228 1229
936 1 1228 1230
937 1 2029 2030
938 1 2029 2031
939 1 631 632
940 1 631 633
941 1 646 647
942 1 646 648
943 1 121 122
944 1 121 123
945 1 988 989
946 1 988 990
947 1 2071 2072
948 1 2071 2073
949 1 1048 1049
950 1 1048 1050
951 1 2188 2189
952 1 2188 2190
953 1 2371 2372
954 1 2371 2373
955 1 874 875
956 1 874 876
957 1 2203 2204
958 1 2203 2205
959 1 580 581
960 1 580 582
961 1 376 377
962 1 376 378
963 1 1864 1865
964 1 1864 1866
965 1 2038 2039
966 1 2038 2040
967 1 1645 1646
968 1 1645 1647
969 1 901 902
970 1 901 903
971 1 1804 1805
972 1 1804 1806
973 1 1789 1790
974 1 1789 1791
975 1 16 17
976 1 16 18
977 1 259 260
978 1 259 261
979 1 370 371
980 1 370 372
981 1 469 470
982 1 469 471
983 1 2311 2312
984 1 2311 2313
985 1 1825 1826
986 1 1825 1827
987 1 262 263
988 1 262 264
989 1 1249 1250
990 1 1249 1251
991 1 1777 1778
992 1 1777 1779
993 1 808 809
994 1 808 810
995 1 1090 1091
996 1 1090 1092
997 1 73 74
998 1 73 75
999 1 2251 2252
1000 1 2251 2253
1001 1 2242 2243
1002 1 2242 2244
1003 1 1570 1571
1004 1 1570 1572
1005 1 754 755
1006 1 754 756
1007 1 664 665
1008 1 664 666
1009 1 655 656
1010 1 655 657
1011 1 1861 1862
1012 1 1861 1863
1013 1 532 533
1014 1 532 534
1015 1 1546 1547
1016 1 1546 1548
1017 1 328 329
1018 1 328 330
1019 1 700 701
1020 1 700 702
1021 1 2131 2132
1022 1 2131 2133
1023 1 103 104
1024 1 103 105
1025 1 643 644
1026 1 643 645
1027 1 1720 1721
1028 1 1720 1722
1029 1 1486 1487
1030 1 1486 1488
1031 1 2374 2375
1032 1 2374 2376
1033 1 688 689
1034 1 688 690
1035 1 1573 1574
1036 1 1573 1575
1037 1 1591 1592
1038 1 1591 1593
1039 1 310 311
1040 1 310 312
1041 1 1375 1376
1042 1 1375 1377
1043 1 472 473
1044 1 472 474
1045 1 1501 1502
1046 1 1501 1503
1047 1 1723 1724
1048 1 1723 1725
1049 1 490 491
1050 1 490 492
1051 1 2023 2024
1052 1 2023 2025
1053 1 1504 1505
1054 1 1504 1506
1055 1 1117 1118
1056 1 1117 1119
1057 1 1072 1073
1058 1 1072 1074
1059 1 331 332
1060 1 331 333
1061 1 1615 1616
1062 1 1615 1617
1063 1 22 23
1064 1 22 24
1065 1 1714 1715
1066 1 1714 1716
1067 1 1735 1736
1068 1 1735 1737
1069 1 2227 2228
1070 1 2227 2229
1071 1 1021 1022
1072 1 1021 1023
1073 1 1462 1463
1074 1 1462 1464
1075 1 2350 2351
1076 1 2350 2352
1077 1 1432 1433
1078 1 1432 1434
1079 1 1189 1190
1080 1 1189 1191
1081 1 1498 1499
1082 1 1498 1500
1083 1 2380 2381
1084 1 2380 2382
1085 1 2275 2276
1086 1 2275 2277
1087 1 403 404
1088 1 403 405
1089 1 694 695
1090 1 694 696
1091 1 1417 1418
1092 1 1417 1419
1093 1 1387 1388
1094 1 1387 1389
1095 1 1303 1304
1096 1 1303 1305
1097 1 91 92
1098 1 91 93
1099 1 1276 1277
1100 1 1276 1278
1101 1 178 179
1102 1 178 180
1103 1 964 965
1104 1 964 966
1105 1 1165 1166
1106 1 1165 1167
1107 1 1519 1520
1108 1 1519 1521
1109 1 1078 1079
1110 1 1078 1080
1111 1 1267 1268
1112 1 1267 1269
1113 1 2296 2297
1114 1 2296 2298
1115 1 1786 1787
1116 1 1786 1788
1117 1 1903 1904
1118 1 1903 1905
1119 1 1330 1331
1120 1 1330 1332
1121 1 1489 1490
1122 1 1489 1491
1123 1 454 455
1124 1 454 456
1125 1 511 512
1126 1 511 513
1127 1 1510 1511
1128 1 1510 1512
1129 1 817 818
1130 1 817 819
1131 1 1699 1700
1132 1 1699 1701
1133 1 2032 2033
1134 1 2032 2034
1135 1 2323 2324
1136 1 2323 2325
1137 1 379 380
1138 1 379 381
1139 1 2278 2279
1140 1 2278 2280
1141 1 1495 1496
1142 1 1495 1497
1143 1 1159 1160
1144 1 1159 1161
1145 1 2158 2159
1146 1 2158 2160
1147 1 1999 2000
1148 1 1999 2001
1149 1 1372 1373
1150 1 1372 1374
1151 1 2200 2201
1152 1 2200 2202
1153 1 616 617
1154 1 616 618
1155 1 1255 1256
1156 1 1255 1257
1157 1 2239 2240
1158 1 2239 2241
1159 1 1669 1670
1160 1 1669 1671
1161 1 1450 1451
1162 1 1450 1452
1163 1 220 221
1164 1 220 222
1165 1 2293 2294
1166 1 2293 2295
1167 1 445 446
1168 1 445 447
1169 1 1600 1601
1170 1 1600 1602
1171 1 1618 1619
1172 1 1618 1620
1173 1 2368 2369
1174 1 2368 2370
1175 1 2317 2318
1176 1 2317 2319
1177 1 1876 1877
1178 1 1876 1878
1179 1 229 230
1180 1 229 231
1181 1 2161 2162
1182 1 2161 2163
1183 1 2395 2396
1184 1 2395 2397
1185 1 2383 2384
1186 1 2383 2385
1187 1 211 212
1188 1 211 213
1189 1 1144 1145
1190 1 1144 1146
1191 1 640 641
1192 1 640 642
1193 1 730 731
1194 1 730 732
1195 1 1747 1748
1196 1 1747 1749
1197 1 301 302
1198 1 301 303
1199 1 760 761
1200 1 760 762
1201 1 2065 2066
1202 1 2065 2067
1203 1 1810 1811
1204 1 1810 1812
1205 1 1012 1013
1206 1 1012 1014
1207 1 991 992
1208 1 991 993
1209 1 1213 1214
1210 1 1213 1215
1211 1 208 209
1212 1 208 210
1213 1 2365 2366
1214 1 2365 2367
1215 1 1264 1265
1216 1 1264 1266
1217 1 1177 1178
1218 1 1177 1179
1219 1 1339 1340
1220 1 1339 1341
1221 1 307 308
1222 1 307 309
1223 1 1840 1841
1224 1 1840 1842
1225 1 1360 1361
1226 1 1360 1362
1227 1 1411 1412
1228 1 1411 1413
1229 1 1039 1040
1230 1 1039 1041
1231 1 1207 1208
1232 1 1207 1209
1233 1 1813 1814
1234 1 1813 1815
1235 1 2359 2360
1236 1 2359 2361
1237 1 1522 1523
1238 1 1522 1524
1239 1 712 713
1240 1 712 714
1241 1 595 596
1242 1 595 597
1243 1 1234 1235
1244 1 1234 1236
1245 1 1921 1922
1246 1 1921 1923
1247 1 910 911
1248 1 910 912
1249 1 1201 1202
1250 1 1201 1203
1251 1 190 191
1252 1 190 192
1253 1 952 953
1254 1 952 954
1255 1 1285 1286
1256 1 1285 1287
1257 1 1807 1808
1258 1 1807 1809
1259 1 2182 2183
1260 1 2182 2184
1261 1 1456 1457
1262 1 1456 1458
1263 1 2002 2003
1264 1 2002 2004
1265 1 322 323
1266 1 322 324
1267 1 1195 1196
1268 1 1195 1197
1269 1 43 44
1270 1 43 45
1271 1 2164 2165
1272 1 2164 2166
1273 1 2362 2363
1274 1 2362 2364
1275 1 1222 1223
1276 1 1222 1224
1277 1 1858 1859
1278 1 1858 1860
1279 1 13 14
1280 1 13 15
1281 1 1312 1313
1282 1 1312 1314
1283 1 46 47
1284 1 46 48
1285 1 2353 2354
1286 1 2353 2355
1287 1 175 176
1288 1 175 177
1289 1 868 869
1290 1 868 870
1291 1 1102 1103
1292 1 1102 1104
1293 1 106 107
1294 1 106 108
1295 1 19 20
1296 1 19 21
1297 1 1096 1097
1298 1 1096 1098
1299 1 1984 1985
1300 1 1984 1986
1301 1 1252 1253
1302 1 1252 1254
1303 1 2092 2093
1304 1 2092 2094
1305 1 1087 1088
1306 1 1087 1089
1307 1 1759 1760
1308 1 1759 1761
1309 1 2137 2138
1310 1 2137 2139
1311 1 2155 2156
1312 1 2155 2157
1313 1 658 659
1314 1 658 660
1315 1 1327 1328
1316 1 1327 1329
1317 1 1516 1517
1318 1 1516 1518
1319 1 2260 2261
1320 1 2260 2262
1321 1 202 203
1322 1 202 204
1323 1 1465 1466
1324 1 1465 1467
1325 1 1555 1556
1326 1 1555 1557
1327 1 124 125
1328 1 124 126
1329 1 679 680
1330 1 679 681
1331 1 55 56
1332 1 55 57
1333 1 1237 1238
1334 1 1237 1239
1335 1 1843 1844
1336 1 1843 1845
1337 1 1480 1481
1338 1 1480 1482
1339 1 2335 2336
1340 1 2335 2337
1341 1 1996 1997
1342 1 1996 1998
1343 1 1027 1028
1344 1 1027 1029
1345 1 2086 2087
1346 1 2086 2088
1347 1 1933 1934
1348 1 1933 1935
1349 1 889 890
1350 1 889 891
1351 1 52 53
1352 1 52 54
1353 1 280 281
1354 1 280 282
1355 1 436 437
1356 1 436 438
1357 1 1513 1514
1358 1 1513 1515
1359 1 70 71
1360 1 70 72
1361 1 1132 1133
1362 1 1132 1134
1363 1 1672 1673
1364 1 1672 1674
1365 1 1492 1493
1366 1 1492 1494
1367 1 2008 2009
1368 1 2008 2010
1369 1 4 5
1370 1 4 6
1371 1 2173 2174
1372 1 2173 2175
1373 1 1351 1352
1374 1 1351 1353
1375 1 2326 2327
1376 1 2326 2328
1377 1 1357 1358
1378 1 1357 1359
1379 1 1405 1406
1380 1 1405 1407
1381 1 649 650
1382 1 649 651
1383 1 1954 1955
1384 1 1954 1956
1385 1 922 923
1386 1 922 924
1387 1 1282 1283
1388 1 1282 1284
1389 1 1180 1181
1390 1 1180 1182
1391 1 2095 2096
1392 1 2095 2097
1393 1 58 59
1394 1 58 60
1395 1 196 197
1396 1 196 198
1397 1 1528 1529
1398 1 1528 1530
1399 1 343 344
1400 1 343 345
1401 1 100 101
1402 1 100 102
1403 1 2050 2051
1404 1 2050 2052
1405 1 2194 2195
1406 1 2194 2196
1407 1 1378 1379
1408 1 1378 1380
1409 1 2377 2378
1410 1 2377 2379
1411 1 673 674
1412 1 673 675
1413 1 1543 1544
1414 1 1543 1545
1415 1 1216 1217
1416 1 1216 1218
1417 1 559 560
1418 1 559 561
1419 1 133 134
1420 1 133 135
1421 1 367 368
1422 1 367 369
1423 1 1972 1973
1424 1 1972 1974
1425 1 274 275
1426 1 274 276
1427 1 1666 1667
1428 1 1666 1668
1429 1 505 506
1430 1 505 507
1431 1 2080 2081
1432 1 2080 2082
1433 1 2344 2345
1434 1 2344 2346
1435 1 31 32
1436 1 31 33
1437 1 1381 1382
1438 1 1381 1383
1439 1 166 167
1440 1 166 168
1441 1 1960 1961
1442 1 1960 1962
1443 1 2053 2054
1444 1 2053 2055
1445 1 535 536
1446 1 535 537
1447 1 1660 1661
1448 1 1660 1662
1449 1 253 254
1450 1 253 255
1451 1 1333 1334
1452 1 1333 1335
1453 1 523 524
1454 1 523 525
1455 1 1051 1052
1456 1 1051 1053
1457 1 136 137
1458 1 136 138
1459 1 1060 1061
1460 1 1060 1062
1461 1 1837 1838
1462 1 1837 1839
1463 1 1696 1697
1464 1 1696 1698
1465 1 1150 1151
1466 1 1150 1152
1467 1 2272 2273
1468 1 2272 2274
1469 1 277 278
1470 1 277 279
1471 1 1114 1115
1472 1 1114 1116
1473 1 898 899
1474 1 898 900
1475 1 766 767
1476 1 766 768
1477 1 2290 2291
1478 1 2290 2292
1479 1 1795 1796
1480 1 1795 1797
1481 1 1123 1124
1482 1 1123 1125
1483 1 1705 1706
1484 1 1705 1707
1485 1 1093 1094
1486 1 1093 1095
1487 1 1987 1988
1488 1 1987 1989
1489 1 1342 1343
1490 1 1342 1344
1491 1 622 623
1492 1 622 624
1493 1 1270 1271
1494 1 1270 1272
1495 1 97 98
1496 1 97 99
1497 1 1054 1055
1498 1 1054 1056
1499 1 40 41
1500 1 40 42
1501 1 1693 1694
1502 1 1693 1695
1503 1 847 848
1504 1 847 849
1505 1 1753 1754
1506 1 1753 1755
1507 1 361 362
1508 1 361 363
1509 1 1084 1085
1510 1 1084 1086
1511 1 1663 1664
1512 1 1663 1665
1513 1 193 194
1514 1 193 195
1515 1 865 866
1516 1 865 867
1517 1 2116 2117
1518 1 2116 2118
1519 1 769 770
1520 1 769 771
1521 1 1540 1541
1522 1 1540 1542
1523 1 187 188
1524 1 187 189
1525 1 2257 2258
1526 1 2257 2259
1527 1 1741 1742
1528 1 1741 1743
1529 1 226 227
1530 1 226 228
1531 1 1447 1448
1532 1 1447 1449
1533 1 1015 1016
1534 1 1015 1017
1535 1 799 800
1536 1 799 801
1537 1 1345 1346
1538 1 1345 1347
1539 1 2074 2075
1540 1 2074 2076
1541 1 2389 2390
1542 1 2389 2391
1543 1 997 998
1544 1 997 999
1545 1 1384 1385
1546 1 1384 1386
1547 1 607 608
1548 1 607 609
1549 1 2314 2315
1550 1 2314 2316
1551 1 499 500
1552 1 499 501
1553 1 1438 1439
1554 1 1438 1440
1555 1 1246 1247
1556 1 1246 1248
1557 1 487 488
1558 1 487 489
1559 1 1 2
1560 1 1 3
1561 1 157 158
1562 1 157 159
1563 1 295 296
1564 1 295 297
1565 1 1612 1613
1566 1 1612 1614
1567 1 1582 1583
1568 1 1582 1584
1569 1 925 926
1570 1 925 927
1571 1 115 116
1572 1 115 117
1573 1 268 269
1574 1 268 270
1575 1 1420 1421
1576 1 1420 1422
1577 1 739 740
1578 1 739 741
1579 1 304 305
1580 1 304 306
1581 1 733 734
1582 1 733 735
1583 1 1075 1076
1584 1 1075 1077
1585 1 1621 1622
1586 1 1621 1623
1587 1 1651 1652
1588 1 1651 1653
1589 1 1006 1007
1590 1 1006 1008
1591 1 94 95
1592 1 94 96
1593 1 61 62
1594 1 61 63
1595 1 1318 1319
1596 1 1318 1320
1597 1 148 149
1598 1 148 150
1599 1 1108 1109
1600 1 1108 1110

Angles

1 1 2264 2263 2265
2 1 2012 2011 2013
3 1 1067 1066 1068
4 1 1112 1111 1113
5 1 1958 1957 1959
6 1 764 763 765
7 1 1910 1909 1911
8 1 1637 1636 1638
9 1 1586 1585 1587
10 1 1460 1459 1461
11 1 1364 1363 1365
12 1 233 232 234
13 1 2288 2287 2289
14 1 527 526 528
15 1 1940 1939 1941
16 1 2255 2254 2256
17 1 143 142 144
18 1 38 37 39
19 1 1703 1702 1704
20 1 1367 1366 1368
21 1 590 589 591
22 1 392 391 393
23 1 422 421 423
24 1 578 577 579
25 1 554 553 555
26 1 1976 1975 1977
27 1 2171 2170 2172
28 1 1679 1678 1680
29 1 821 820 822
30 1 1745 1744 1746
31 1 1604 1603 1605
32 1 1154 1153 1155
33 1 1874 1873 1875
34 1 1931 1930 1932
35 1 2141 2140 2142
36 1 236 235 237
37 1 1979 1978 1980
38 1 80 79 81
39 1 605 604 606
40 1 1892 1891 1893
41 1 905 904 906
42 1 2321 2320 2322
43 1 815 814 816
44 1 11 10 12
45 1 2015 2014 2016
46 1 1832 1831 1833
47 1 1172 1171 1173
48 1 914 913 915
49 1 2237 2236 2238
50 1 1280 1279 1281
51 1 1589 1588 1590
52 1 1043 1042 1044
53 1 1850 1849 1851
54 1 2219 2218 2220
55 1 1766 1765 1767
56 1 1802 1801 1803
57 1 593 592 594
58 1 410 409 411
59 1 449 448 450
60 1 1580 1579 1581
61 1 1895 1894 1896
62 1 1100 1099 1101
63 1 146 145 147
64 1 398 397 399
65 1 1634 1633 1635
66 1 716 715 717
67 1 1835 1834 1836
68 1 2036 2035 2037
69 1 2018 2017 2019
70 1 83 82 84
71 1 725 724 726
72 1 1391 1390 1392
73 1 2177 2176 2178
74 1 824 823 825
75 1 980 979 981
76 1 539 538 540
77 1 2249 2248 2250
78 1 248 247 249
79 1 1718 1717 1719
80 1 602 601 603
81 1 2006 2005 2007
82 1 743 742 744
83 1 638 637 639
84 1 2393 2392 2394
85 1 1901 1900 1902
86 1 782 781 783
87 1 584 583 585
88 1 383 382 384
89 1 2099 2098 2100
90 1 2198 2197 2199
91 1 1259 1258 1260
92 1 1964 1963 1965
93 1 1685 1684 1686
94 1 1205 1204 1206
95 1 1607 1606 1608
96 1 353 352 354
97 1 218 217 219
98 1 1550 1549 1551
99 1 938 937 939
100 1 1175 1174 1176
101 1 854 853 855
102 1 710 709 711
103 1 356 355 357
104 1 635 634 636
105 1 2168 2167 2169
106 1 464 463 465
107 1 1424 1423 1425
108 1 2108 2107 2109
109 1 1991 1990 1992
110 1 881 880 882
111 1 1757 1756 1758
112 1 1169 1168 1170
113 1 2084 2083 2085
114 1 1484 1483 1485
115 1 1655 1654 1656
116 1 779 778 780
117 1 1751 1750 1752
118 1 1508 1507 1509
119 1 1907 1906 1908
120 1 407 406 408
121 1 68 67 69
122 1 2111 2110 2112
123 1 140 139 141
124 1 1262 1261 1263
125 1 350 349 351
126 1 653 652 654
127 1 335 334 336
128 1 1121 1120 1122
129 1 626 625 627
130 1 950 949 951
131 1 2048 2047 2049
132 1 1727 1726 1728
133 1 1793 1792 1794
134 1 326 325 327
135 1 2348 2347 2349
136 1 2270 2269 2271
137 1 668 667 669
138 1 1799 1798 1800
139 1 1925 1924 1926
140 1 566 565 567
141 1 425 424 426
142 1 2135 2134 2136
143 1 428 427 429
144 1 851 850 852
145 1 707 706 708
146 1 434 433 435
147 1 2285 2284 2286
148 1 1211 1210 1212
149 1 1772 1771 1773
150 1 830 829 831
151 1 413 412 414
152 1 704 703 705
153 1 1349 1348 1350
154 1 341 340 342
155 1 620 619 621
156 1 299 298 300
157 1 833 832 834
158 1 374 373 375
159 1 245 244 246
160 1 1628 1627 1629
161 1 320 319 321
162 1 26 25 27
163 1 416 415 417
164 1 1565 1564 1566
165 1 1952 1951 1953
166 1 746 745 747
167 1 1472 1471 1473
168 1 722 721 723
169 1 1526 1525 1527
170 1 65 64 66
171 1 1064 1063 1065
172 1 1784 1783 1785
173 1 482 481 483
174 1 35 34 36
175 1 803 802 804
176 1 443 442 444
177 1 776 775 777
178 1 959 958 960
179 1 614 613 615
180 1 128 127 129
181 1 1562 1561 1563
182 1 1898 1897 1899
183 1 29 28 30
184 1 200 199 201
185 1 1853 1852 1854
186 1 170 169 171
187 1 1994 1993 1995
188 1 1649 1648 1650
189 1 89 88 90
190 1 1982 1981 1983
191 1 2330 2329 2331
192 1 485 484 486
193 1 1148 1147 1149
194 1 266 265 267
195 1 542 541 543
196 1 857 856 858
197 1 1886 1885 1887
198 1 359 358 360
199 1 1004 1003 1005
200 1 317 316 318
201 1 758 757 759
202 1 1058 1057 1059
203 1 2216 2215 2217
204 1 986 985 987
205 1 215 214 216
206 1 1400 1399 1401
207 1 119 118 120
208 1 1295 1294 1296
209 1 1046 1045 1047
210 1 791 790 792
211 1 1274 1273 1275
212 1 941 940 942
213 1 917 916 918
214 1 1691 1690 1692
215 1 185 184 186
216 1 86 85 87
217 1 749 748 750
218 1 728 727 729
219 1 1730 1729 1731
220 1 224 223 225
221 1 1106 1105 1107
222 1 1037 1036 1038
223 1 845 844 846
224 1 1943 1942 1944
225 1 1640 1639 1641
226 1 521 520 522
227 1 1532 1531 1533
228 1 1070 1069 1071
229 1 338 337 339
230 1 1559 1558 1560
231 1 2042 2041 2043
232 1 1781 1780 1782
233 1 545 544 546
234 1 1937 1936 1938
235 1 827 826 828
236 1 401 400 402
237 1 908 907 909
238 1 2309 2308 2310
239 1 1010 1009 1011
240 1 1535 1534 1536
241 1 1829 1828 1830
242 1 1430 1429 1431
243 1 773 772 774
244 1 152 151 153
245 1 1553 1552 1554
246 1 2342 2341 2343
247 1 2045 2044 2046
248 1 662 661 663
249 1 164 163 165
250 1 1538 1537 1539
251 1 461 460 462
252 1 518 517 519
253 1 575 574 576
254 1 1136 1135 1137
255 1 1232 1231 1233
256 1 2021 2020 2022
257 1 290 289 291
258 1 1631 1630 1632
259 1 251 250 252
260 1 503 502 504
261 1 2129 2128 2130
262 1 1325 1324 1326
263 1 2102 2101 2103
264 1 806 805 807
265 1 2123 2122 2124
266 1 971 970 972
267 1 1301 1300 1302
268 1 878 877 879
269 1 944 943 945
270 1 671 670 672
271 1 452 451 453
272 1 692 691 693
273 1 2057 2056 2058
274 1 1817 1816 1818
275 1 1034 1033 1035
276 1 1163 1162 1164
277 1 1292 1291 1293
278 1 2120 2119 2121
279 1 1820 1819 1821
280 1 1310 1309 1311
281 1 50 49 51
282 1 1184 1183 1185
283 1 2210 2209 2211
284 1 2060 2059 2061
285 1 389 388 390
286 1 1031 1030 1032
287 1 1397 1396 1398
288 1 884 883 885
289 1 929 928 930
290 1 872 871 873
291 1 551 550 552
292 1 797 796 798
293 1 557 556 558
294 1 1130 1129 1131
295 1 1598 1597 1599
296 1 2246 2245 2247
297 1 1775 1774 1776
298 1 563 562 564
299 1 458 457 459
300 1 2153 2152 2154
301 1 1595 1594 1596
302 1 239 238 240
303 1 1337 1336 1338
304 1 1823 1822 1824
305 1 1157 1156 1158
306 1 2333 2332 2334
307 1 629 628 630
308 1 2126 2125 2127
309 1 1643 1642 1644
310 1 476 475 477
311 1 1241 1240 1242
312 1 2186 2185 2187
313 1 1970 1969 1971
314 1 77 76 78
315 1 587 586 588
316 1 1187 1186 1188
317 1 2078 2077 2079
318 1 2114 2113 2115
319 1 2213 2212 2214
320 1 515 514 516
321 1 242 241 243
322 1 1469 1468 1470
323 1 1676 1675 1677
324 1 293 292 294
325 1 2192 2191 2193
326 1 284 283 285
327 1 860 859 861
328 1 2303 2302 2304
329 1 155 154 156
330 1 365 364 366
331 1 2306 2305 2307
332 1 2282 2281 2283
333 1 1226 1225 1227
334 1 2090 2089 2091
335 1 686 685 687
336 1 947 946 948
337 1 962 961 963
338 1 956 955 957
339 1 509 508 510
340 1 2234 2233 2235
341 1 272 271 273
342 1 842 841 843
343 1 8 7 9
344 1 794 793 795
345 1 1889 1888 1890
346 1 1916 1915 1917
347 1 1928 1927 1929
348 1 1625 1624 1626
349 1 395 394 396
350 1 1025 1024 1026
351 1 2069 2068 2070
352 1 1949 1948 1950
353 1 1220 1219 1221
354 1 1298 1297 1299
355 1 983 982 984
356 1 1436 1435 1437
357 1 347 346 348
358 1 1658 1657 1659
359 1 2222 2221 2223
360 1 1967 1966 1968
361 1 1289 1288 1290
362 1 131 130 132
363 1 314 313 315
364 1 1880 1879 1881
365 1 1139 1138 1140
366 1 920 919 921
367 1 1712 1711 1713
368 1 2063 2062 2064
369 1 1568 1567 1569
370 1 1307 1306 1308
371 1 1394 1393 1395
372 1 2207 2206 2208
373 1 1454 1453 1455
374 1 1199 1198 1200
375 1 257 256 258
376 1 2231 2230 2232
377 1 2225 2224 2226
378 1 1688 1687 1689
379 1 110 109 111
380 1 467 466 468
381 1 2147 2146 2148
382 1 1733 1732 1734
383 1 1370 1369 1371
384 1 479 478 480
385 1 1355 1354 1356
386 1 1763 1762 1764
387 1 611 610 612
388 1 1415 1414 1416
389 1 839 838 840
390 1 1856 1855 1857
391 1 893 892 894
392 1 1769 1768 1770
393 1 1142 1141 1143
394 1 2180 2179 2181
395 1 677 676 678
396 1 572 571 573
397 1 431 430 432
398 1 113 112 114
399 1 932 931 933
400 1 1409 1408 1410
401 1 1478 1477 1479
402 1 1847 1846 1848
403 1 2105 2104 2106
404 1 863 862 864
405 1 1883 1882 1884
406 1 1739 1738 1740
407 1 1445 1444 1446
408 1 173 172 174
409 1 2399 2398 2400
410 1 1001 1000 1002
411 1 836 835 837
412 1 569 568 570
413 1 719 718 720
414 1 1913 1912 1914
415 1 287 286 288
416 1 599 598 600
417 1 2387 2386 2388
418 1 1610 1609 1611
419 1 2267 2266 2268
420 1 2150 2149 2151
421 1 1709 1708 1710
422 1 1868 1867 1869
423 1 1442 1441 1443
424 1 1082 1081 1083
425 1 1682 1681 1683
426 1 896 895 897
427 1 2027 2026 2028
428 1 788 787 789
429 1 2357 2356 2358
430 1 530 529 531
431 1 2339 2338 2340
432 1 1919 1918 1920
433 1 785 784 786
434 1 419 418 420
435 1 1577 1576 1578
436 1 161 160 162
437 1 812 811 813
438 1 182 181 183
439 1 2300 2299 2301
440 1 2144 2143 2145
441 1 1322 1321 1323
442 1 1127 1126 1128
443 1 494 493 495
444 1 1193 1192 1194
445 1 968 967 969
446 1 995 994 996
447 1 386 385 387
448 1 1946 1945 1947
449 1 683 682 684
450 1 548 547 549
451 1 974 973 975
452 1 1244 1243 1245
453 1 737 736 738
454 1 1871 1870 1872
455 1 698 697 699
456 1 1316 1315 1317
457 1 440 439 441
458 1 887 886 888
459 1 206 205 207
460 1 752 751 753
461 1 1019 1018 1020
462 1 1427 1426 1428
463 1 1403 1402 1404
464 1 935 934 936
465 1 1475 1474 1476
466 1 497 496 498
467 1 977 976 978
468 1 1229 1228 1230
469 1 2030 2029 2031
470 1 632 631 633
471 1 647 646 648
472 1 122 121 123
473 1 989 988 990
474 1 2072 2071 2073
475 1 1049 1048 1050
476 1 2189 2188 2190
477 1 2372 2371 2373
478 1 875 874 876
479 1 2204 2203 2205
480 1 581 580 582
481 1 377 376 378
482 1 1865 1864 1866
483 1 2039 2038 2040
484 1 1646 1645 1647
485 1 902 901 903
486 1 1805 1804 1806
487 1 1790 1789 1791
488 1 17 16 18
489 1 260 259 261
490 1 371 370 372
491 1 470 469 471
492 1 2312 2311 2313
493 1 1826 1825 1827
494 1 263 262 264
495 1 1250 1249 1251
496 1 1778 1777 1779
497 1 809 808 810
498 1 1091 1090 1092
499 1 74 73 75
500 1 2252 2251 2253
501 1 2243 2242 2244
502 1 1571 1570 1572
503 1 755 754 756
504 1 665 664 666
505 1 656 655 657
506 1 1862 1861 1863
507 1 533 532 534
508 1 1547 1546 1548
509 1 329 328 330
510 1 701 700 702
511 1 2132 2131 2133
512 1 104 103 105
513 1 644 643 645
514 1 1721 1720 1722
515 1 1487 1486 1488
516 1 2375 2374 2376
517 1 689 688 690
518 1 1574 1573 1575
519 1 1592 1591 1593
520 1 311 310 312
521 1 1376 1375 1377
522 1 473 472 474
523 1 1502 1501 1503
524 1 1724 1723 1725
525 1 491 490 492
526 1 2024 2023 2025
527 1 1505 1504 1506
528 1 1118 1117 1119
529 1 1073 1072 1074
530 1 332 331 333
531 1 1616 1615 1617
532 1 23 22 24
533 1 1715 1714 1716
534 1 1736 1735 1737
535 1 2228 2227 2229
536 1 1022 1021 1023
537 1 1463 1462 1464
538 1 2351 2350 2352
539 1 1433 1432 1434
540 1 1190 1189 1191
541 1 1499 1498 1500
542 1 2381 2380 2382
543 1 2276 2275 2277
544 1 404 403 405
545 1 695 694 696
546 1 1418 1417 1419
547 1 1388 1387 1389
548 1 1304 1303 1305
549 1 92 91 93
550 1 1277 1276 1278
551 1 179 178 180
552 1 965 964 966
553 1 1166 1165 1167
554 1 1520 1519 1521
555 1 1079 1078 1080
556 1 1268 1267 1269
557 1 2297 2296 2298
558 1 1787 1786 1788
559 1 1904 1903 1905
560 1 1331 1330 1332
561 1 1490 1489 1491
562 1 455 454 456
563 1 512 511 513
564 1 1511 1510 1512
565 1 818 817 819
566 1 1700 1699 1701
567 1 2033 2032 2034
568 1 2324 2323 2325
569 1 380 379 381
570 1 2279 2278 2280
571 1 1496 1495 1497
572 1 1160 1159 1161
573 1 2159 2158 2160
574 1 2000 1999 2001
575 1 1373 1372 1374
576 1 2201 2200 2202
577 1 617 616 618
578 1 1256 1255 1257
579 1 2240 2239 2241
580 1 1670 1669 1671
581 1 1451 1450 1452
582 1 221 220 222
583 1 2294 2293 2295
584 1 446 445 447
585 1 1601 1600 1602
586 1 1619 1618 1620
587 1 2369 2368 2370
588 1 2318 2317 2319
589 1 1877 1876 1878
590 1 230 229 231
591 1 2162 2161 2163
592 1 2396 2395 2397
593 1 2384 2383 2385
594 1 212 211 213
595 1 1145 1144 1146
596 1 641 640 642
597 1 731 730 732
598 1 1748 1747 1749
599 1 302 301 303
600 1 761 760 762
601 1 2066 2065 2067
602 1 1811 1810 1812
603 1 1013 1012 1014
604 1 992 991 993
605 1 1214 1213 1215
606 1 209 208 210
607 1 2366 2365 2367
608 1 1265 1264 1266
609 1 1178 1177 1179
610 1 1340 1339 1341
611 1 308 307 309
612 1 1841 1840 1842
613 1 1361 1360 1362
614 1 1412 1411 1413
615 1 1040 1039 1041
616 1 1208 1207 1209
617 1 1814 1813 1815
618 1 2360 2359 2361
619 1 1523 1522 1524
620 1 713 712 714
621 1 596 595 597
622 1 1235 1234 1236
623 1 1922 1921 1923
624 1 911 910 912
625 1 1202 1201 1203
626 1 191 190 192
627 1 953 952 954
628 1 1286 1285 1287
629 1 1808 1807 1809
630 1 2183 2182 2184
631 1 1457 1456 1458
632 1 2003 2002 2004
633 1 323 322 324
634 1 1196 1195 1197
635 1 44 43 45
636 1 2165 2164 2166
637 1 2363 2362 2364
638 1 1223 1222 1224
639 1 1859 1858 1860
640 1 14 13 15
641 1 1313 1312 1314
642 1 47 46 48
643 1 2354 2353 2355
644 1 176 175 177
645 1 869 868 870
646 1 1103 1102 1104
647 1 107 106 108
648 1 20 19 21
649 1 1097 1096 1098
650 1 1985 1984 1986
651 1 1253 1252 1254
652 1 2093 2092 2094
653 1 1088 1087 1089
654 1 1760 1759 1761
655 1 2138 2137 2139
656 1 2156 2155 2157
657 1 659 658 660
658 1 1328 1327 1329
659 1 1517 1516 1518
660 1 2261 2260 2262
661 1 203 202 204
662 1 1466 1465 1467
663 1 1556 1555 1557
664 1 125 124 126
665 1 680 679 681
666 1 56 55 57
667 1 1238 1237 1239
668 1 1844 1843 1845
669 1 1481 1480 1482
670 1 2336 2335 2337
671 1 1997 1996 1998
672 1 1028 1027 1029
673 1 2087 2086 2088
674 1 1934 1933 1935
675 1 890 889 891
676 1 53 52 54
677 1 281 280 282
678 1 437 436 438
679 1 1514 1513 1515
680 1 71 70 72
681 1 1133 1132 1134
682 1 1673 1672 1674
683 1 1493 1492 1494
684 1 2009 2008 2010
685 1 5 4 6
686 1 2174 2173 2175
687 1 1352 1351 1353
688 1 2327 2326 2328
689 1 1358 1357 1359
690 1 1406 1405 1407
691 1 650 649 651
692 1 1955 1954 1956
693 1 923 922 924
694 1 1283 1282 1284
695 1 1181 1180 1182
696 1 2096 2095 2097
697 1 59 58 60
698 1 197 196 198
699 1 1529 1528 1530
700 1 344 343 345
701 1 101 100 102
702 1 2051 2050 2052
703 1 2195 2194 2196
704 1 1379 1378 1380
705 1 2378 2377 2379
706 1 674 673 675
707 1 1544 1543 1545
708 1 1217 1216 1218
709 1 560 559 561
710 1 134 133 135
711 1 368 367 369
712 1 1973 1972 1974
713 1 275 274 276
714 1 1667 1666 1668
715 1 506 505 507
716 1 2081 2080 2082
717 1 2345 2344 2346
718 1 32 31 33
719 1 1382 1381 1383
720 1 167 166 168
721 1 1961 1960 1962
722 1 2054 2053 2055
723 1 536 535 537
724 1 1661 1660 1662
725 1 254 253 255
726 1 1334 1333 1335
727 1 524 523 525
728 1 1052 1051 1053
729 1 137 136 138
730 1 1061 1060 1062
731 1 1838 1837 1839
732 1 1697 1696 1698
733 1 1151 1150 1152
734 1 2273 2272 2274
735 1 278 277 279
736 1 1115 1114 1116
737 1 899 898 900
738 1 767 766 768
739 1 2291 2290 2292
740 1 1796 1795 1797
741 1 1124 1123 1125
742 1 1706 1705 1707
743 1 1094 1093 1095
744 1 1988 1987 1989
745 1 1343 1342 1344
746 1 623 622 624
747 1 1271 1270 1272
748 1 98 97 99
749 1 1055 1054 1056
750 1 41 40 42
751 1 1694 1693 1695
752 1 848 847 849
753 1 1754 1753 1755
754 1 362 361 363
755 1 1085 1084 1086
756 1 1664 1663 1665
757 1 194 193 195
758 1 866 865 867
759 1 2117 2116 2118
760 1 770 769 771
761 1 1541 1540 1542
762 1 188 187 189
763 1 2258 2257 2259
764 1 1742 1741 1743
765 1 227 226 228
766 1 1448 1447 1449
767 1 1016 1015 1017
768 1 800 799 801
769 1 1346 1345 1347
770 1 2075 2074 2076
771 1 2390 2389 2391
772 1 998 997 999
773 1 1385 1384 1386
774 1 608 607 609
775 1 2315 2314 2316
776 1 500 499 501
777 1 1439 1438 1440
778 1 1247 1246 1248
779 1 488 487 489
780 1 2 1 3
781 1 158 157 159
782 1 296 295 297
783 1 1613 1612 1614
784 1 1583 1582 1584
785 1 926 925 927
786 1 116 115 117
787 1 269 268 270
788 1 1421 1420 1422
789 1 740 739 741
790 1 305 304 306
791 1 734 733 735
792 1 1076 1075 1077
793 1 1622 1621 1623
794 1 1652 1651 1653
795 1 1007 1006 1008
796 1 95 94 96
797 1 62 61 63
798 1 1319 1318 1320
799 1 149 148 150
800 1 1109 1108 1110
